Li6 Co12 O24 
1.0
5.6023674011230469e+00 0.0000000000000000e+00 0.0000000000000000e+00 
-2.7129340171813965e+00 4.9254789352416992e+00 0.0000000000000000e+00 
3.9489399641752243e-02 3.5008725523948669e-01 1.4287523269653320e+01 
Li Co O 
6 12 24 
Cartesian
   2.9511098862    0.4320000112   14.2069902420
   4.5424098969    0.7732899785    4.7355599403
   2.8916099072    3.2718000412    4.8047900200
   0.1162699983    1.8217999935    9.4535799026
  -1.2953499556    4.2532901764    9.6465702057
   1.5106099844    4.0680999756    9.5303602219
   0.1563899964    1.7843799591    2.4132099152
  -1.2922400236    4.2801899910    2.4671099186
   2.8926200867    1.7025300264    2.4015600681
   1.6250200272    4.2676100731    2.3450500965
   2.8965198994    5.0736498833    7.2204298973
   4.2978000641    2.5386500359    7.2403402328
   2.8663599491    0.2108300030    7.1170301437
   1.5725699663    2.6138799191    7.2011399269
   1.3329099417    1.0075500011   11.7972898483
  -0.0323700011    3.4940600395   11.9024896622
   4.0574698448    1.1062500477   11.8216896057
   2.6910300255    3.5708498955   11.9155902863
   0.1218499988    0.2406799942    3.4138500690
  -1.2005599737    2.5683801174    3.3790600300
   2.9289100170    0.1468600035    3.4261701107
   1.5969899893    2.5800499916    3.3285400867
   1.4950200319    0.9412999749    1.3730599880
   0.0722599998    3.3705298901    1.4761400223
   4.3169999123    1.0586099625    1.3714699745
   2.8868799210    3.3986599445    1.3813699484
   1.3972200155    0.8809000254    8.2285604477
   0.1502200067    3.5005099773    8.2203598022
   4.3128299713    0.9687799811    8.2383699417
   2.9549500942    3.5369598866    8.1067695618
   0.0900000036    1.7689499855    6.3011598587
  -1.3354400396    4.3078999519    6.3406300545
   2.9643099308    1.8231199980    6.0819001198
   1.5602899790    4.2562599182    6.2371001244
  -0.0507799983    1.8669799566   12.7496900558
  -1.3816200495    4.3471198082   12.8643903732
   2.7340800762    1.8812400103   12.8565902710
   1.4088300467    4.4232602119   12.8141899109
   2.7681400776    5.1900601387   10.8218898773
   4.0876197815    2.8208398819   10.8992900848
  -0.0173300002    5.0451197624   10.8648900986
   1.3946100473    2.6380600929   10.7724895477
