Li6 Co12 O24 
1.0
5.4957361221313477e+00 0.0000000000000000e+00 0.0000000000000000e+00 
-2.7575712203979492e+00 4.7503333091735840e+00 0.0000000000000000e+00 
1.4914034307003021e-01 4.3009659275412560e-03 1.3283588409423828e+01 
Li Co O 
6 12 24 
Cartesian
   3.0050899982    0.0903299972   13.2665300369
   4.1317901611    0.8954499960    4.3980398178
   2.8654499054    3.0133299828    4.3730001450
  -0.0735199973    1.5992799997    8.7115097046
  -1.2798800468    3.8433198929    8.8507099152
   1.3856699467    3.8800001144    8.8515996933
   0.1862599999    1.7213499546    2.0666999817
  -1.2234499454    4.1113600731    2.1960699558
   2.9928500652    1.7158600092    2.0973899364
   1.5492399931    4.0727500916    2.0966799259
   2.6876699924    4.6618499756    6.5926198959
   4.1191501617    2.3698399067    6.6172499657
  -0.0430100001    4.7295999527    6.5140500069
   1.3429399729    2.2895700932    6.6171698570
   1.4243700504    0.7110099792   11.2432298660
   0.0694700032    3.0901598930   11.3020296097
   4.1971201897    0.7521299720   11.1991300583
   2.7453200817    3.1009900570   11.2581300735
   0.1407600045    0.1567700058    3.1218199730
  -1.1412700415    2.4673099518    3.1896700859
   2.9722700119    0.1815699935    3.1479198933
   1.6585600376    2.4697399139    3.0906600952
   1.5114200115    0.8691700101    1.1106200218
   0.1911100000    3.2943899632    1.1206200123
   4.3340401649    0.8907200098    1.0589900017
   2.9442598820    3.4093201160    1.1008199453
   1.3179500103    0.7021600008    7.5416297913
   0.0760200024    3.1522700787    7.7466697693
   4.0527000427    0.6801499724    7.6162400246
   2.6881599426    3.1539399624    7.6706399918
  -0.0690900013    1.5725300312    5.5759601593
  -1.4005700350    3.8472299576    5.5252199173
   2.7221400738    1.5283900499    5.6162199974
   1.3446600437    3.8970599174    5.5357799530
   0.1196400002    1.5181699991   12.1966295242
  -1.4212900400    3.8818700314   12.2414302826
   2.8062400818    1.4860800505   12.1853303909
   1.4566999674    3.9492599964   12.2392301559
   2.7336499691    4.6517100334   10.1827297211
  -1.2207800150    2.3468101025   10.2808303833
   0.0185199995    4.6482901573   10.2012300491
   1.4472500086    2.2841300964   10.2759304047
