Li6 Co12 O24 
1.0
5.6027035713195801e+00 0.0000000000000000e+00 0.0000000000000000e+00 
-2.7687602043151855e+00 4.8191652297973633e+00 0.0000000000000000e+00 
-7.1656078100204468e-01 9.5230974256992340e-02 1.3051710128784180e+01 
Li Co O 
6 12 24 
Cartesian
  -0.9034000039    4.8159799576   13.0484504700
   2.6998600960    3.1228001118    4.2773199081
  -0.4433499873    1.4231200218    8.7903404236
  -1.8044300079    4.3463702202    8.7172403336
   2.4300000668    1.6096500158    8.8427495956
   1.1573599577    4.1026201248    8.7901201248
  -0.1311800033    1.4525500536    2.1847701073
  -1.5481300354    3.8464999199    2.1317598820
   2.6942501068    1.4546799660    2.1029999256
   1.2647700310    3.9337298870    2.0334699154
  -0.3982200027    0.2092200071    6.3424901962
  -1.7642300129    2.5571699142    6.4580998421
   2.4453399181    0.1751700044    6.5339298248
   1.1018199921    2.5709700584    6.4302601814
   0.7912999988    0.9113600254   10.9886798859
  -0.5461099744    3.3443601131   10.9733800888
   3.6134700775    0.9080500007   11.0347795486
   2.1974599361    3.3160400391   11.1139802933
   2.6311500072    4.6609997749    3.0125598907
   4.0641298294    2.2651300430    3.2363500595
  -0.0769400001    4.7205801010    3.0206499100
   1.3943799734    2.3607900143    3.1493699551
   1.1950000525    0.6576600075    1.1488300562
  -0.1437200010    2.9591300488    1.2679400444
   4.1793599129    0.6622300148    1.1421999931
   2.6604399681    3.0968201160    1.0599499941
   1.0460799932    0.8502200246    7.5058298111
  -0.4020799994    3.3960399628    7.5238900185
   3.7873599529    0.9791600108    7.3909702301
   2.4475800991    3.3728199005    7.3149900436
  -0.3440800011    1.8282799721    5.4744300842
  -1.6215699911    4.1283302307    5.4687900543
   2.5250198841    1.7860300541    5.5327401161
   1.1138999462    4.2720799446    5.4413099289
  -0.5477700233    1.8212699890   11.8365802765
  -1.9193799496    4.1086502075   11.9707803726
   2.2085499763    1.7002300024   12.0894804001
   0.7704499960    4.2057299614   12.0842800140
   5.0048198700    0.0766400024    9.9562797546
  -1.7908500433    2.5142600536    9.9494800568
   2.2639999390    0.1091099977    9.9701795578
   0.9059699774    2.5614199638    9.9654798508
