Li6 Co12 O24 
1.0
5.6486139297485352e+00 0.0000000000000000e+00 0.0000000000000000e+00 
-2.7715947628021240e+00 4.8775691986083984e+00 0.0000000000000000e+00 
-1.5100351572036743e+00 7.4988198280334473e-01 1.4133553504943848e+01 
Li Co O 
6 12 24 
Cartesian
  -2.6259899139    4.7550201416    0.0412000008
  -1.5561900139    5.5396199226   14.0935497284
   0.0322900005    3.1956400871   14.1069498062
   3.4272799492    2.9244399071    4.6728301048
   1.5788999796    2.3959999084    9.6864900589
   0.2636600137    4.8061800003    9.5948095322
   0.2500300109    1.5215100050    2.2672300339
  -1.1146600246    3.9752700329    2.3454198837
   3.0846400261    1.5245699883    2.2975900173
   1.7131700516    3.9681301117    2.2880001068
   4.5612897873    0.6215500236    7.0675101280
   3.1640400887    3.1082301140    7.2710099220
   1.7507499456    0.6568300128    7.0587501526
   0.3621200025    3.0501799583    7.0438799858
   0.0170200001    1.3956899643   11.6640501022
  -1.4317500591    3.8628199100   11.7009496689
   2.8693099022    1.4097100496   11.8412504196
   1.4106500149    3.8401598930   11.8493499756
  -2.5504100323    4.7919697762    3.2365000248
  -1.1407599449    2.3527901173    3.2623600960
   0.2707099915    4.6956200600    3.3054599762
   1.6735999584    2.2790200710    3.3392500877
   1.6442500353    0.7993800044    1.2552800179
   0.3258900046    3.1604199409    1.2684299946
   4.5280900002    0.7223399878    1.2217400074
   3.0257000923    3.1057798862    1.2788300514
   0.2990199924    1.4563699961    8.0389003754
  -0.9987699986    3.8652501106    8.0764398575
   3.0506999493    1.3222800493    8.0566701889
   1.7211300135    3.9699499607    8.1186199188
  -1.1548700333    2.3161900043    6.2224001884
  -2.5343699455    4.6532001495    6.1554098129
   1.8348400593    2.2939200401    6.1837100983
   0.3743999898    4.7616000175    6.0967202187
  -1.3682500124    2.1906399727   12.7489500046
  -2.8199100494    4.6645598412   12.7119503021
   1.3529499769    2.1770300865   12.8400497437
  -0.1156599969    4.6515498161   12.7639503479
   1.5066299438    5.4475097656   10.8324499130
   2.8284800053    3.0012400150   10.8125495911
   1.4814499617    0.6546400189   10.6960496902
   0.0593000017    3.0588901043   10.7645502090
