Li6 Co12 O24 
1.0
5.7579455375671387e+00 0.0000000000000000e+00 0.0000000000000000e+00 
-2.8763377666473389e+00 4.9307198524475098e+00 0.0000000000000000e+00 
6.8429756164550781e-01 -2.3385992050170898e+00 1.5384552001953125e+01 
Li Co O 
6 12 24 
Cartesian
   0.4916000068   -1.5679600239   14.8594398499
  -0.0830800012    1.5410399437    5.5966901779
  -0.0075599998    0.1428900063   10.2467498779
  -1.3564000130    2.6484301090   10.3598804474
   2.7170100212    0.1298899949   10.1420202255
   1.6770700216    2.6464700699   10.2032003403
   1.0753400326    1.0420000553    2.6348400116
  -0.4477699995    3.5136499405    2.5937500000
   3.8339700699    1.0101100206    2.5582799911
   2.3935899734    3.6041100025    2.5955400467
   2.7930099964    3.4695200920    7.7569098473
   4.2212901115    1.1065800190    7.8550901413
  -0.0664900020    3.4952700138    7.9924898148
   1.4065400362    0.9967300296    7.9591898918
   1.5710999966   -0.7070699930   12.5279397964
   0.1617700011    1.7880899906   12.6951398849
   4.5262899399   -0.7449499965   12.5350399017
   3.0291199684    1.8559700251   12.5961399078
  -1.8983600140    4.3722400665    3.5804300308
  -0.4041700065    1.9445699453    3.5784800053
   3.8371100426   -0.5046200156    3.5205500126
   2.5573999882    2.0520501137    3.5191199780
   2.4053099155    0.1463499963    1.5501899719
   1.0750299692    2.7526299953    1.6984299421
   5.3949499130    0.3529100120    1.7763999701
  -1.7172900438    2.8287799358    1.6046899557
   1.3353500366   -0.6487699747    8.9167699814
  -0.2592400014    1.8113000393    8.9379796982
   4.3854298592   -0.6818699837    8.9386701584
   2.8254299164    1.8862199783    8.8555498123
  -0.1671099961    0.3159300089    6.9667401314
  -1.4853800535    2.7681400776    6.9362998009
   2.7611899376    0.0524599999    6.9550199509
   1.2959899902    2.5825200081    7.0782098770
   0.1177399978    0.0965500027   13.6115398407
  -1.2580599785    2.6473000050   13.5436401367
   3.0016100407    0.1192699969   13.4631395340
   1.5896699429    2.6028099060   13.6561403275
   5.9488501549   -1.5229899883   11.4374399185
   4.3489298820    0.9677100182   11.5198402405
   2.9894700050   -1.4572999477   11.4824399948
   1.5070600510    1.0500999689   11.7015399933
