Li6 Co12 O24 
1.0
5.6026978492736816e+00 0.0000000000000000e+00 0.0000000000000000e+00 
-2.8654878139495850e+00 4.8976721763610840e+00 0.0000000000000000e+00 
1.1520746946334839e+00 1.3789937496185303e+00 1.4328263282775879e+01 
Li Co O 
6 12 24 
Cartesian
   0.7980800271    5.8395600319   14.2947196960
   4.5925297737    1.5561599731    4.7917299271
   3.4365398884    3.9032399654    4.8550500870
   0.7975000143    2.4104399681    9.5617704391
  -0.9077200294    4.7761597633    9.5418300629
   1.7586799860    4.7885398865    9.5693397522
   0.6353700161    2.0587399006    2.3126299381
  -0.7552599907    4.5428600311    2.4551699162
   3.4305500984    2.0776500702    2.2558999062
   2.0932199955    4.4622697830    2.3656299114
   0.5094900131    0.9101600051    7.1422600746
   4.6466097832    3.2933299541    7.2896099091
   3.3946299553    0.8532500267    7.1758899689
   1.8269000053    3.2781898975    7.0634999275
   1.9755500555    1.5409799814   11.9819202423
   0.4863800108    4.0190200806   12.0512199402
   4.7000398636    1.5955300331   11.8796195984
   3.2989699841    4.0763998032   12.0455198288
   0.6620399952    0.4557499886    3.3604099751
  -0.8702600002    2.8760199547    3.3965899944
   3.5479900837    0.4406200051    3.3447000980
   2.0839900970    2.9241499901    3.3225100040
   1.9798099995    1.1462099552    1.4378199577
   0.6086300015    3.7863500118    1.4793900251
   4.8160600662    1.1704000235    1.3257700205
   3.5428400040    3.7342700958    1.3439999819
   1.8814300299    1.7361999750    8.1860599518
   0.4321900010    4.0803899765    8.2390499115
   4.7647800446    1.6336200237    8.2571802139
   3.2221999168    4.1926097870    8.1502199173
   0.4037300050    2.6073300838    6.0954298973
  -0.9530699849    4.9107098579    6.2744598389
   3.3381400108    2.4561200142    6.1478700638
   2.0178499222    4.9402699471    6.1363000870
   0.5271800160    2.5171198845   12.8659200668
  -0.8361499906    4.9201598167   13.0406198502
   3.2258999348    2.3874499798   12.9314203262
   1.8494000435    5.0104899406   12.9659204483
   3.2658898830    5.7049598694   10.9043197632
   4.8194398880    3.2497200966   11.0177202225
   0.5130699873    5.7023601532   10.8592195511
   1.9150600433    3.2562398911   11.0495195389
