Li6 Co12 O24 
1.0
5.5317258834838867e+00 0.0000000000000000e+00 0.0000000000000000e+00 
-2.8126485347747803e+00 4.8405418395996094e+00 0.0000000000000000e+00 
-9.0342417359352112e-02 1.0923565626144409e+00 1.4427963256835938e+01 
Li Co O 
6 12 24 
Cartesian
   0.7266100049    4.7380599976    0.0512499996
   4.1825699806    1.2689199448    5.0199499130
   2.5018799305    3.5936100483    4.8359999657
   0.0223299991    2.4141600132    9.3350801468
  -1.5927300453    4.4317598343    9.5482501984
   1.4073699713    4.4250001907    9.5380401611
  -0.0719100013    2.2600500584    2.5581300259
  -1.5527299643    4.7261099815    2.3048601151
   2.6531999111    2.2575399876    2.3342199326
   1.2798399925    4.6293201447    2.5040400028
  -2.8100500107    5.3446102142    7.1909599304
  -1.3767399788    2.8714799881    7.1621699333
   2.7655999660    0.5789499879    7.1804499626
   1.4162499905    2.7996599674    7.2087402344
   1.3095599413    1.3910100460   11.9988498688
  -0.1042200029    3.7061800957   12.1828498840
   4.0197000504    1.3221700191   11.8750495911
   2.6461400986    3.7911000252   12.0970497131
  -0.1401599944    0.6457499862    3.5171699524
  -1.4657000303    3.0820000172    3.4133501053
   2.5824999809    0.6621500254    3.4146699905
   1.2369699478    2.9188799858    3.5225501060
   1.2179499865    1.5187200308    1.5179500580
  -0.1884000003    3.7557399273    1.4427200556
   4.0360298157    1.4115200043    1.4146699905
   2.5781400204    3.9633500576    1.4156099558
   1.2628799677    1.1719199419    8.3493900299
   0.1011099964    3.7105700970    8.2705297470
   4.1897997856    1.3329399824    8.1760997772
   2.7621700764    3.7337698936    8.3298597336
   0.0855000019    1.9954799414    6.1448001862
  -1.4762699604    4.4572401047    6.2067999840
   2.7609601021    2.1019499302    6.0382299423
   1.4970599413    4.5193800926    6.2218399048
  -0.1582199931    2.1650099754   12.9712495804
  -1.4832799435    4.6597499847   12.9790496826
   2.6906199455    2.0390100479   12.9953498840
   1.2535099983    4.6300902367   12.9845504761
   2.6148099899    5.4593801498   10.9816503525
   4.1587901115    2.9087100029   11.0377502441
  -0.1599500030    5.3187799454   11.0230503082
   1.2883299589    2.9271500111   11.1095504761
