Li6 Co12 O24 
1.0
5.5575308799743652e+00 0.0000000000000000e+00 0.0000000000000000e+00 
-2.7797341346740723e+00 4.9206438064575195e+00 0.0000000000000000e+00 
1.0630526542663574e+00 -1.0004917383193970e+00 1.5154517173767090e+01 
Li Co O 
6 12 24 
Cartesian
   3.5649499893   -0.7372800112   15.0851402283
   3.7876999378    2.4281799793    5.2743902206
   1.1671199799    0.7478700280   10.4727697372
  -0.2302999943    3.1754999161   10.0236597061
   3.9149498940    0.7700700164    9.9921903610
   2.2948200703    3.2407701015   10.3833599091
  -0.1701100022    1.8294700384    2.3234400749
  -1.6203700304    4.2997899055    2.4086799622
   2.5299201012    1.8365499973    2.4550399780
   1.1431800127    4.3553099632    2.3943099976
  -1.7856099606    3.9880399704    7.7292900085
  -0.3128899932    1.5211900473    7.6780900955
   0.9673200250    3.9789500237    7.8184800148
   2.2523701191    1.4696600437    7.7463598251
   2.1725499630    0.1095699966   12.6015396118
   0.8079100251    2.5517399311   12.6048402786
   4.9723300934    0.0694700032   12.6081399918
   3.5884499550    2.5306301117   12.5958404541
   5.4515800476    0.2458599955    3.4219698906
   4.0358700752    2.7024300098    3.2880499363
   2.5267400742    0.2074699998    3.4492499828
   1.1102700233    2.5764999390    3.3547999859
   1.1555500031    0.9985899925    1.3788700104
  -0.1544200033    3.5049300194    1.2974799871
   3.7766399384    0.9302600026    1.4865599871
   2.5780100822    3.4460499287    1.3820400238
   2.3408401012   -0.0958399996    8.7051200867
   0.9834499955    2.3636798859    8.7702503204
   5.2105498314   -0.0199999996    8.9058904648
   3.7813699245    2.2637500763    8.6610097885
   1.0673199892    0.6854699850    6.7689900398
  -0.4583399892    3.1255700588    6.8103899956
   3.8253400326    0.7098199725    6.8216700554
   2.2815399170    3.1857800484    6.7462000847
   0.7300500274    0.8536400199   13.5486402512
  -0.5975300074    3.4342598915   13.5604400635
   3.6514699459    0.9737100005   13.5470399857
   2.1644299030    3.4693000317   13.6192398071
  -1.9105299711    4.1036701202   11.5900402069
  -0.5244399905    1.6469000578   11.5810403824
   3.5894000530   -0.6602900028   11.3765401840
   2.0531599522    1.7587100267   11.5166397095
