Li6 Co12 O24 
1.0
5.6979866027832031e+00 0.0000000000000000e+00 0.0000000000000000e+00 
-2.8315386772155762e+00 4.8740830421447754e+00 0.0000000000000000e+00 
1.6002373397350311e-01 -1.9697855412960052e-01 1.4812324523925781e+01 
Li Co O 
6 12 24 
Cartesian
   2.9619400501    4.6175198555   14.6492395401
  -0.0377999991    4.7320199013    0.0220199991
   1.4121400118    2.1055099964   14.7185401917
   2.9322400093    3.3899600506    4.7156801224
   3.0965499878    1.6187399626   10.3360099792
   1.8571900129    4.1371397972   10.1281003952
  -0.0730800033    1.6119400263    2.3775100708
  -1.3727400303    4.0911197662    2.2236700058
   2.7367200851    1.7239500284    2.3812100887
   1.4861199856    4.1151199341    2.5032699108
   2.8613901138    4.7255997658    7.4687800407
   4.1744198799    2.2589600086    7.5043501854
   0.0148999998    4.6377100945    7.4101901054
   1.3586499691    2.2061500549    7.4554400444
   1.7430499792    0.6715000272   12.3865404129
   0.2601400018    3.1913299561   12.3698396683
   4.6317100525    0.6422799826   12.2852401733
   3.1356899738    3.0371799469   12.4685401917
   2.9060699940    4.7617301941    3.3682699203
   4.1212902069    2.4817399979    3.3347499371
   2.7363200188    0.1731899977    3.2488200665
   1.4471999407    2.2838599682    3.2695000172
   1.5153499842    0.8551399708    1.2581199408
   0.0158300009    3.1941800117    1.3197200298
   4.3233098984    0.8533599973    1.3644800186
   2.7869598866    3.3208301067    1.2969700098
   1.4651600122    0.6330000162    8.4612998962
  -0.0525799990    3.0780899525    8.4946899414
   4.1876502037    0.6323400140    8.5895299911
   2.8439700603    3.1071898937    8.4687595367
  -0.2116799951    1.5135899782    6.4602899551
  -1.4922000170    3.8156499863    6.5125098228
   2.8127200603    1.3792099953    6.4540300369
   1.4035700560    3.8597500324    6.4434199333
   0.2576400042    1.5104199648   13.3014402390
  -1.0878700018    4.0447402000   13.4753398895
   3.1974999905    1.3724999428   13.4881401062
   1.7683700323    3.8701601028   13.4691400528
  -2.5299599171    4.5458798409   11.3024396896
  -1.1190400124    2.2415599823   11.2924404144
   3.1323399544   -0.0416299999   11.2988395691
   1.6761300564    2.3151700497   11.3716402054
