Li6 Co12 O24 
1.0
5.5691094398498535e+00 0.0000000000000000e+00 0.0000000000000000e+00 
-2.8126230239868164e+00 4.9892754554748535e+00 0.0000000000000000e+00 
5.5775910615921021e-01 -6.2914258241653442e-01 1.4219577789306641e+01 
Li Co O 
6 12 24 
Cartesian
   3.1257901192   -0.4527199864   14.0511703491
   2.7562301159    2.9944000244    4.7344198227
   0.5574499965    1.2032999992    9.7910299301
  -1.0200300217    3.7945001125    9.5156297684
   2.9805400372    1.2624399662    9.5652303696
   1.8379700184    3.6698000431    9.5534296036
  -0.0031900001    1.3344700336    2.2865200043
  -1.3604600430    3.7730700970    2.3708999157
   2.8096499443    1.3193099499    2.4994599819
   1.3991800547    3.8125998974    2.4358000755
   0.4655399919   -0.1377400011    7.1462101936
  -0.9620199800    2.2968599796    7.1604499817
   3.2600200176   -0.2051600069    7.3001699448
   1.7800799608    2.3245899677    7.2045497894
   1.7579699755    0.3610399961   11.7687702179
   0.3749000132    2.9306399822   11.6784696579
   4.5272102356    0.4053699970   11.7827701569
   3.1448700428    2.8945899010   11.7166700363
   2.8435399532    4.6711997986    3.3509399891
  -1.2302299738    2.2785000801    3.4074900150
  -0.0236900002    4.5602998734    3.3380200863
   1.4422399998    2.1321198940    3.3582201004
   1.3536499739    0.4727999866    1.3597199917
   0.0864799991    3.0576798916    1.4791200161
   4.1090698242    0.4432699978    1.3062800169
   2.8255600929    3.0110399723    1.4634499550
   1.7398500443    0.7503600121    8.1618499756
   0.4408200085    3.2248899937    8.3096399307
   4.6632800102    0.7204800248    8.1555299759
   3.2026700974    3.1473801136    8.2630300522
   0.3497999907    1.5449399948    6.2551898956
  -0.9652600288    3.9253799915    6.4513001442
   3.1346299648    1.4468499422    6.1654801369
   1.7733000517    3.9900600910    6.2906098366
   0.2781699896    1.3031699657   12.6517696381
  -0.9948400259    3.7739500999   12.6509704590
   3.2256300449    1.2794100046   12.7070703506
   1.6361600161    3.7470400333   12.6960697174
   5.9120101929   -0.4110000134   10.6831703186
   4.4817399979    2.0431299210   10.6143703461
   0.3608399928    4.4822897911   10.6934700012
   1.7911700010    2.0953800678   10.6843700409
