Li6 Co12 O24 
1.0
5.6564450263977051e+00 0.0000000000000000e+00 0.0000000000000000e+00 
-2.6997821331024170e+00 4.9806222915649414e+00 0.0000000000000000e+00 
-4.5406717061996460e-01 -2.9089498519897461e-01 1.4283332824707031e+01 
Li Co O 
6 12 24 
Cartesian
  -2.3150799274    4.8540902138    0.2381899953
  -0.0552200004    3.5653800964   14.1620101929
   4.0262198448    1.0095900297    4.7842597961
   3.0601398945    3.5966401100    4.8907098770
   2.8191199303    1.7510299683    9.5369195938
   0.9956700206    3.9395499229    9.4568595886
  -0.0873899981    1.5795700550    2.5808200836
  -1.4733400345    4.0759301186    2.5076599121
   2.7652699947    1.5877699852    2.4608600140
   1.2810900211    4.0219998360    2.4936699867
   5.3839502335   -0.1149699986    7.1978302002
   3.9694700241    2.4696300030    7.1638798714
   2.6376700401   -0.0561899990    7.0394201279
   1.1387499571    2.3668599129    7.2103199959
   1.2559800148    0.6261100173   11.7162199020
  -0.1809100062    3.0160501003   11.7317199707
   3.9741899967    0.6040800214   11.7791204453
   2.6703000069    3.1693599224   11.8250198364
   5.3175702095   -0.0351300016    3.6189100742
   4.1463098526    2.4545099735    3.6102700233
  -0.0916799977    4.8034901619    3.4817800522
   1.4605699778    2.4369099140    3.4883201122
   1.3095999956    0.6676300168    1.5333299637
   0.0346800014    3.1279199123    1.6004999876
   4.1119699478    0.5621799827    1.4742599726
   2.7289099693    3.3242599964    1.5371600389
   1.2760299444    0.6858500242    8.0431499481
  -0.1151600033    3.1615500450    8.1477899551
   4.0739698410    0.6241700053    8.1628799438
   2.4750299454    3.1434500217    8.2112598419
  -0.1880200058    1.6087700129    6.2142300606
  -1.5245000124    4.0742602348    6.1783800125
   2.5004999638    1.5537999868    6.0638999939
   1.3684699535    4.0004200935    6.1774802208
  -0.2849400043    1.4810199738   12.5999202728
  -1.4329600334    3.9206800461   12.7352199554
   2.5455999374    1.5229400396   12.7379198074
   1.2036399841    4.0080599785   12.6309204102
  -0.2697499990   -0.1939300001   10.7853202820
  -1.6838799715    2.2466299534   10.9315204620
  -0.1450500041    4.7106699944   10.7558202744
   1.2790000439    2.3350899220   10.7038202286
