Li6 Co12 O24 
1.0
5.6016621589660645e+00 0.0000000000000000e+00 0.0000000000000000e+00 
-2.7323868274688721e+00 4.8115572929382324e+00 0.0000000000000000e+00 
-3.7227594852447510e-01 -3.4966430068016052e-01 1.5072141647338867e+01 
Li Co O 
6 12 24 
Cartesian
  -0.1468199939    4.3555297852   14.7931098938
   2.3712298870    2.9010000229    5.0931100845
  -0.1432400048    1.3268699646    9.9066095352
  -1.5647699833    3.6204299927   10.0898303986
   2.7597100735    1.6450699568    9.8867902756
   1.1062899828    3.7931199074    9.9353799820
  -0.1243100017    1.3923799992    2.4500799179
  -1.5595500469    3.8599600792    2.5218598843
   2.5079998970    1.4527100325    2.4372200966
   1.1568700075    3.8494999409    2.4766499996
  -0.0652099997   -0.0757300034    7.6536397934
  -1.4454100132    2.3194699287    7.6673297882
   2.6822500229   -0.1212799996    7.7878499031
   1.3914699554    2.3291199207    7.8104801178
   1.2058099508    0.4783299863   12.3797101974
  -0.1397199929    2.9598400593   12.4054098129
   3.9876298904    0.5635799766   12.2903099060
   2.6720499992    2.9977800846   12.5351104736
   2.5016899109    4.5201601982    3.6458299160
   3.9964199066    2.1761400700    3.4234199524
  -0.1627299935    4.5805501938    3.4806799889
   1.2471599579    2.2165799141    3.5336599350
   1.1394499540    0.5643299818    1.4838800430
  -0.3380700052    2.9334499836    1.3895599842
   4.0258197784    0.6612799764    1.4803800583
   2.4602599144    3.1091299057    1.5838700533
   1.3393199444    0.7788900137    8.8963098526
  -0.1673199981    2.9338300228    8.8743801117
   4.0596199036    0.6994699836    8.7864503860
   2.6907699108    3.2572100163    8.7326297760
  -0.0291799996    1.5645999908    6.8426098824
  -1.3653199673    3.9644000530    6.7815198898
   2.5859799385    1.5297600031    6.8273000717
   1.2663300037    3.9279000759    6.7643098831
  -0.1167699993    1.2292399406   13.2569103241
  -1.5672700405    3.9083399773   13.4851102829
   2.6277899742    1.2307200432   13.3172101974
   1.1827299595    3.7887001038   13.2770099640
  -2.9435300827    4.5429301262   11.3358097076
  -1.6041400433    2.2038099766   11.3908100128
   2.5683400631   -0.1753399968   11.3105096817
   1.1934399605    2.2609200478   11.3821096420
