Li6 Co12 O24 
1.0
5.4564933776855469e+00 0.0000000000000000e+00 0.0000000000000000e+00 
-2.7399408817291260e+00 4.7165031433105469e+00 0.0000000000000000e+00 
9.4177730381488800e-02 -1.4736068248748779e-01 1.3180171966552734e+01 
Li Co O 
6 12 24 
Cartesian
   0.0764899999    0.1243499964   13.1767396927
  -0.0943000019    4.5584602356   13.1022996902
   1.5042500496    2.5038399696   13.1021995544
   2.6417899132    2.9930100441    4.5933799744
   2.5007600784    1.3751499653    8.7337303162
   1.2753499746    3.8128099442    8.7418603897
  -0.0159000009    1.7117700577    2.4821100235
  -1.2696399689    4.0136599541    2.3840599060
   2.7876300812    1.6340099573    2.3214099407
   1.4638099670    3.9908099174    2.4404299259
   2.7452299595    4.5655498505    6.5900201797
   4.1393499374    2.1425399780    6.4142899513
  -0.0405099988    4.5505700111    6.5278902054
   1.2830699682    2.0738101006    6.4843997955
   1.4485700130    0.7072799802   10.9154996872
   0.0272899996    3.0433700085   10.8175001144
   4.2667398453    0.6646900177   10.7809000015
   2.9265298843    2.9853401184   10.7611999512
   0.0340000018    0.1252900064    3.3991799355
  -1.3299800158    2.4660298824    3.3837099075
   2.8824999332    0.0883800015    3.3142900467
   1.4577499628    2.3912999630    3.4531900883
   1.3090100288    0.8804600239    1.4166699648
   0.0324900001    3.2724299431    1.3717299700
   4.1320900917    0.8048800230    1.4639699459
   2.6479699612    3.2449200153    1.4013500214
   1.3167500496    0.5730299950    7.6115798950
   0.0186100006    3.0218598843    7.5689997673
   4.0338897705    0.5868099928    7.5195498466
   2.7054100037    2.8281700611    7.4226698875
  -0.0778200030    1.3679000139    5.5446600914
  -1.5124100447    3.7298500538    5.6338801384
   2.7836799622    1.3871300220    5.3854699135
   1.3430199623    3.7402400970    5.6724801064
   0.0887200013    1.5099500418   11.8719997406
  -1.4632400274    3.8984599113   11.9352998734
   2.8568699360    1.4641699791   11.8958997726
   1.3787699938    3.7589199543   11.9020996094
  -2.5852301121    4.5565700531    9.7642002106
  -1.1826100349    2.2635400295    9.8064002991
   2.7776000500   -0.0943500027    9.9137001038
   1.4870500565    2.3252000809    9.8371000290
