Li6 Co12 O24 
1.0
5.6164722442626953e+00 0.0000000000000000e+00 0.0000000000000000e+00 
-3.0026178359985352e+00 4.7619738578796387e+00 0.0000000000000000e+00 
1.0028601884841919e+00 -1.4553113281726837e-01 1.4393711090087891e+01 
Li Co O 
6 12 24 
Cartesian
   0.9618899822    0.3306399882   14.2012596130
  -0.1275700033    4.4401497841    0.2268999964
   4.6016798019    0.7421799898    4.8104901314
   3.2578299046    3.3265099525    4.7273797989
   3.9192900658    1.8417400122    9.7955198288
   1.8346199989    3.9540200233    9.6653099060
   0.0144999996    1.3924800158    2.1875400543
  -1.4572499990    3.8875799179    2.4886300564
   2.7783598900    1.4350099564    2.2997601032
   1.3455200195    3.8717899323    2.3330500126
   3.0980000496    4.6729297638    7.2995300293
   4.6532301903    2.2139699459    7.2310700417
   0.3443099856    4.6472902298    7.1833400726
   1.8581399918    2.1940701008    7.1986699104
   2.2581300735    0.8819699883   11.9965600967
   0.7844499946    3.2105898857   12.0115604401
   4.9757499695    0.9374899864   12.0926599503
   3.6203300953    3.2419900894   12.1339597702
   2.6149599552    4.6912498474    3.3788499832
   4.2147898674    2.0819799900    3.3577599525
   2.8968000412    0.0223800000    3.4327499866
   1.4071999788    2.0872499943    3.1222798824
   1.5607500076    0.6770899892    1.1856199503
  -0.0129000004    3.0458300114    1.3203200102
   4.1732201576    0.8101400137    1.3177900314
   2.8468201160    3.0643699169    1.3585400581
   2.0062301159    0.5443400145    8.1491498947
   0.3703700006    3.0416700840    8.0553197861
   4.5041098595    0.7257199883    8.2566995621
   3.1941800117    2.8662500381    8.3283395767
   0.4715099931    1.3261799812    6.2553801537
  -1.0721900463    3.8425099850    6.2313499451
   3.2370500565    1.4376699924    6.0770401955
   1.7064700127    3.8375999928    6.1881198883
   0.9492700100    1.5394500494   12.9468603134
  -0.6518700123    3.8482201099   13.1388597488
   3.6622200012    1.6182899475   13.0746603012
   2.0381600857    3.9928200245   13.0324602127
   0.8052999973    0.0087599996   11.1844596863
  -0.5635300279    2.4924499989   11.0304603577
   3.6057400703   -0.0071999999   10.9327602386
   2.3547399044    2.4042100906   11.0057601929
