Li6 Co12 O24 
1.0
5.6952905654907227e+00 0.0000000000000000e+00 0.0000000000000000e+00 
-2.8396232128143311e+00 4.8674864768981934e+00 0.0000000000000000e+00 
3.3852916210889816e-02 -1.4932152032852173e+00 1.3524462699890137e+01 
Li Co O 
6 12 24 
Cartesian
   2.6849400997   -1.0952800512   13.4376096725
   2.6668100357    1.7424499989    4.5642399788
  -0.0642400011    0.5358399749    9.1164503098
  -1.4656200409    2.7222199440    9.1135797501
   2.9203400612    0.4556800127    9.2181901932
   1.4234800339    2.6702599525    9.2051296234
   0.0705000013    1.9771300554    2.1405200958
  -1.4185800552    4.3648300171    2.1283600330
   2.8726599216    1.9613100290    2.1012499332
   1.4484399557    4.4221000671    2.1553499699
   2.8387401104    3.6533000469    6.7375001907
   4.3106799126    1.1429400444    6.7977199554
  -0.0889699981    3.6681399345    6.7682199478
   1.4968700409    1.2025300264    6.7303700447
   1.4719500542   -0.5333899856   11.2797098160
   0.0824500024    1.9493399858   11.3929100037
   4.3256697655   -0.4517599940   11.4056100845
   2.9154798985    1.9457499981   11.5199098587
   0.1314200014    0.2537899911    3.0357499123
  -1.3826099634    2.8517100811    3.1404800415
   2.8183801174    0.3644700050    3.1328899860
   1.5409300327    2.6458098888    3.1622200012
   1.4221800566    1.1937899590    1.1189199686
  -0.0490100011    3.6191999912    1.2648600340
   4.2023501396    1.1986099482    1.2021199465
   2.8354499340    3.5743899345    1.2072800398
   1.3940000534   -0.3996799886    7.6307201385
   0.0102300001    1.9805699587    7.6872501373
   4.2120699883   -0.3842900097    7.7215199471
   2.7994101048    1.9626400471    7.9427900314
   0.0751999989    0.3964700103    5.7786397934
  -1.4522399902    2.7734301090    5.8767199516
   2.8709700108    0.3691399992    5.7078800201
   1.5179100037    2.8612000942    5.8376798630
  -0.0113899997    0.3790000081   12.3341102600
  -1.4039200544    2.6796100140   12.2328100204
   3.0079100132    0.3013899922   12.2862100601
   1.4365500212    2.6416299343   12.3945102692
   2.8875100613    3.5903201103   10.3109102249
   4.3051700592    1.0765899420   10.3271102905
  -0.0005400000    3.5392398834   10.2887096405
   1.3951400518    1.1454199553   10.4432096481
