Li6 Co12 O24 
1.0
5.6490168571472168e+00 0.0000000000000000e+00 0.0000000000000000e+00 
-2.8055953979492188e+00 4.9818792343139648e+00 0.0000000000000000e+00 
-2.6197662577033043e-02 -7.7803870663046837e-03 1.3317189216613770e+01 
Li Co O 
6 12 24 
Cartesian
   2.7011699677    0.1214400008    0.0059799999
   2.7598199844    3.1661500931    4.4396400452
   0.0396500006    1.6244000196    8.6883697510
  -1.3240000010    4.0601701736    8.8191299438
   2.9401299953    1.5890200138    8.6843395233
   1.5568200350    4.1652197838    8.6761999130
  -0.0349199995    1.7172900438    2.1870300770
  -1.4025599957    4.2146000862    2.3237900734
   2.8160500526    1.6991599798    2.2714099884
   1.3877999783    4.2042298317    2.2561600208
  -2.7297298908    4.9041500092    6.5622901917
  -1.3449200392    2.4334399700    6.5243501663
   0.0807399973    4.9526000023    6.5275201797
   1.4885799885    2.3302099705    6.5422601700
   1.2896000147    0.8177999854   11.1075696945
  -0.1071100011    3.3249499798   11.1849699020
   4.1418399811    0.8756899834   11.1302700043
   2.7761299610    3.3494899273   11.3154697418
   2.8382999897    4.9625601768    3.1037900448
  -1.4008300304    2.5597000122    3.1901299953
   0.0725300014    4.9725799561    3.1620399952
   1.4595600367    2.6049900055    3.1982901096
   1.4715299606    0.8117600083    1.3028000593
   0.0728499964    3.4333798885    1.3701000214
   4.2111902237    0.8593099713    1.3210999966
   2.8805699348    3.3524401188    1.3993799686
   1.4715700150    0.7230799794    7.5869698524
   0.1749300063    3.2589700222    7.5581002235
   4.2394599915    0.7174800038    7.6034398079
   2.9181499481    3.2365899086    7.7106199265
   0.0764599964    1.6358799934    5.6304597855
  -1.3370000124    4.1266398430    5.6546697617
   2.9110200405    1.6006400585    5.5669999123
   1.4752199650    4.1182198524    5.5158600807
  -0.2294600010    1.7074700594   12.1310701370
  -1.5416599512    4.2002000809   12.2081699371
   2.7882099152    1.6362700462   12.0999698639
   1.3369899988    4.2520799637   12.2160701752
   2.7432498932    4.9235601425   10.1064701080
  -1.4812300205    2.6029500961   10.0646696091
  -0.0464800000    4.9712500572   10.0981702805
   1.3438700438    2.6480500698   10.2986698151
