Li6 Co12 O24 
1.0
5.7064232826232910e+00 0.0000000000000000e+00 0.0000000000000000e+00 
-2.9439356327056885e+00 4.8673954010009766e+00 0.0000000000000000e+00 
2.2778312861919403e-01 7.1635901927947998e-01 1.4224334716796875e+01 
Li Co O 
6 12 24 
Cartesian
  -0.7952600121    5.1793298721   14.0490503311
   4.6589899063    1.2345999479    4.8944702148
   2.8663198948    3.7109699249    4.8632698059
   0.2101400048    1.8343299627    9.4810600281
  -1.1909500360    4.4261999130    9.3058004379
   1.5303900242    4.3023400307    9.5365695953
   0.1758400053    2.0201699734    2.3644099236
  -1.3409999609    4.4193701744    2.5881099701
   3.0244300365    1.9499299526    2.4263999462
   1.5352200270    4.4095301628    2.4092600346
   2.8817698956    5.2120299339    7.1165699959
  -1.2226899862    2.8585801125    7.1023502350
   3.0064599514    0.4385800064    7.0478301048
   1.5552899837    2.8532600403    7.0390100479
   1.4553200006    1.1660399437   11.7957496643
  -0.1286499947    3.5184600353   11.9332504272
   4.2981901169    1.1088299751   11.8487501144
   2.7494699955    3.5861499310   11.8127498627
   0.1048299968    0.3045200109    3.3785300255
  -1.1378699541    2.7165100574    3.4288198948
   3.0547399521    0.3359000087    3.3890299797
   1.6107000113    2.7799201012    3.3948299885
   1.6334799528    1.0593700409    1.5406600237
   0.2171400040    3.6099700928    1.4465999603
   4.4236698151    1.2441300154    1.3413200378
   3.0982599258    3.6740200520    1.4827599525
   1.6836700439    1.1365499496    8.1056404114
   0.0824500024    3.8778200150    8.2853202820
   4.4933600426    1.2638299465    8.0129804611
   2.8392200470    3.6149001122    8.0472002029
   0.0732500032    2.0702199936    6.0798997879
  -1.3544900417    4.5083298683    6.0909099579
   2.9113700390    2.0986599922    6.0261201859
   1.4030300379    4.4574899673    6.0405502319
  -0.1030000001    2.0010099411   12.9686498642
  -1.4566600323    4.4160900116   12.6405496597
   2.8265500069    1.9407500029   12.8157501221
   1.2807899714    4.2958397865   12.7255496979
   2.6919300556    5.1029601097   10.7633495331
   4.2926797867    2.6799700260   10.8330497742
  -0.0149999997    5.2523798943   10.8141498566
   1.2206900120    2.7946300507   10.8704500198
