Li6 Co12 O24 
1.0
5.6773586273193359e+00 0.0000000000000000e+00 0.0000000000000000e+00 
-2.8356592655181885e+00 4.9004845619201660e+00 0.0000000000000000e+00 
-4.9098029732704163e-01 -6.9394081830978394e-01 1.4373723983764648e+01 
Li Co O 
6 12 24 
Cartesian
  -0.0143299997    4.2598400116    0.0890899971
   2.4016199112    2.9002399445    5.0224399567
  -0.4447200000    1.6562399864    9.8058996201
  -1.6930500269    3.9288198948    9.9193496704
   2.6700899601    1.1689200401    9.7212295532
   1.2213699818    3.7039599419    9.6840496063
  -0.0665500015    0.8154799938    2.4614999294
  -1.3924499750    3.3572199345    2.2112600803
   2.7868700027    0.9635000229    2.0986900330
   1.4618699551    3.4362199306    2.1046400070
  -0.2985500097   -0.1949699968    7.3044199944
  -1.6780300140    2.3510999680    7.3714199066
   2.6388800144   -0.2056100070    7.3085699081
   1.1602799892    2.1837499142    7.3899798393
   0.9863299727    0.7836300135   11.9987001419
  -0.5814800262    3.1281399727   11.9062995911
   3.8195700645    0.5653200150   12.0060997009
   2.3633201122    3.1422600746   11.9362001419
   2.7215800285    4.1970300674    3.2555100918
   4.2544398308    1.7360899448    3.1238899231
   0.0251899995    4.2102899551    3.1408200264
   1.4502899647    1.7802799940    3.2366499901
   1.3305200338    0.1347600073    1.2836600542
  -0.0462800004    2.4961600304    1.3651299477
   4.3163700104    0.1375100017    1.2988899946
   2.7777199745    2.5704300404    1.2403500080
   1.2393200397    0.5096399784    8.4098100662
  -0.1402200013    3.1386399269    8.4544801712
   4.1588997841    0.6157400012    8.4229297638
   2.4517400265    2.9171700478    8.4059896469
  -0.2081300020    1.4878400564    6.5006999969
  -1.6263300180    3.9482400417    6.3653302193
   2.5224299431    1.4885200262    6.4230198860
   1.1558699608    3.8107099533    6.3756699562
  -0.4710299969    1.5394200087   12.8180999756
  -1.8734899759    3.9852199554   12.7656002045
   2.3430299759    1.6249300241   12.9450998306
   0.8433600068    3.9070401192   12.9032001495
  -0.3606599867   -0.1077999994   10.9400997162
  -1.8793400526    2.3011300564   10.9160003662
   2.4171700478   -0.1128799990   11.0593996048
   1.0029599667    2.2979700565   10.9679002762
