Li6 Co12 O24 
1.0
5.6578888893127441e+00 0.0000000000000000e+00 0.0000000000000000e+00 
-2.7790191173553467e+00 4.9715576171875000e+00 0.0000000000000000e+00 
2.1385725587606430e-02 -6.0767143964767456e-01 1.4467952728271484e+01 
Li Co O 
6 12 24 
Cartesian
   0.0834100023    3.7174201012   14.2593498230
   2.9552099705    3.1228499413    4.8263301849
   0.1049799994    1.1012099981    9.6927299500
  -1.2803200483    3.7996799946    9.6325397491
   2.9204800129    1.4455900192    9.5656795502
   1.4092199802    3.8161499500    9.6585702896
  -0.0248799995    1.3788399696    2.3652501106
  -1.4189200401    3.7615098953    2.3226199150
   2.7399699688    1.3202799559    2.2528800964
   1.3611500263    3.7502000332    2.3533799648
   0.0960400030   -0.2793399990    7.4289898872
  -1.3499699831    2.1586899757    7.3761701584
   0.0516900010    4.6503100395    7.4478697777
   1.5316499472    2.1807200909    7.2955899239
   1.4435900450    0.6006100178   12.0331497192
   0.0513099991    3.1241400242   11.9385499954
   4.3167400360    0.6347399950   11.9865503311
   2.8331899643    3.0691099167   12.0559501648
   2.8865499496    4.5646100044    3.2327198982
   4.1865401268    2.1144599915    3.3742699623
   0.0250599999    4.5629100800    3.2918300629
   1.3568199873    2.0362799168    3.2325301170
   1.3661500216    0.4548099935    1.3257199526
  -0.0028400000    2.9836499691    1.3516199589
   4.2020897865    0.3961699903    1.4093699455
   2.8691399097    2.9827399254    1.2905600071
   1.4712699652    0.4419899881    8.3747100830
   0.0991000012    3.0082399845    8.4701499939
   4.3718500137    0.5883499980    8.4773797989
   2.8933200836    2.9402000904    8.4072904587
   0.1042300016    1.3030300140    6.5269298553
  -1.3567099571    3.7196400166    6.4171199799
   2.8250200748    1.4047100544    6.4190001488
   1.4964499474    3.7785799503    6.5118899345
   0.0423300005    1.5733300447   12.9475498199
  -1.2777899504    3.9247999191   12.9512500763
   2.9526300430    1.3968499899   12.8926496506
   1.4960800409    3.9035599232   12.9006500244
   0.0135300001   -0.2503499985   11.0428495407
  -1.2768900394    2.2383899689   10.8961496353
   2.9352900982   -0.1258900017   10.8887500763
   1.4780199528    2.2473599911   10.9932498932
