Li6 Co12 O24 
1.0
5.6503543853759766e+00 0.0000000000000000e+00 0.0000000000000000e+00 
-2.8386695384979248e+00 4.7572617530822754e+00 0.0000000000000000e+00 
5.6256848573684692e-01 4.0550428628921509e-01 1.5153545379638672e+01 
Li Co O 
6 12 24 
Cartesian
   0.7203400135    0.5355100036   15.0396604538
   0.6907100081    5.0514597893   14.8342599869
   1.9660400152    2.8508400917   15.1178598404
   3.1420700550    3.1165299416    4.9438300133
   3.7928900719    2.0741798878   10.5143203735
   1.1952799559    3.8362600803   10.3990001678
   0.0495200008    1.4232699871    2.3998000622
  -1.3648600578    3.8745100498    2.3012599945
   2.9653699398    1.4406599998    2.2868399620
   1.4769899845    3.7833700180    2.4156401157
   2.9763000011    4.9494400024    7.7172098160
   4.3174099922    2.6034600735    7.6550297737
   2.9034500122    0.3067300022    7.6791901588
   1.4502199888    2.5782101154    7.7069897652
   2.0646600723    1.3527100086   12.6835603714
   0.6131100059    3.6860399246   12.7057600021
   4.9466099739    1.2755299807   12.7263603210
   3.4526400566    3.6652901173   12.6395597458
   2.8526101112    4.6651401520    3.3941099644
   4.2847499847    2.3135499954    3.3175001144
   0.1022000015    4.5749201775    3.2682800293
   1.5372500420    2.1807301044    3.3753399849
   1.4675999880    0.6522799730    1.2268999815
   0.1008900031    2.9155199528    1.3308700323
   4.3368000984    0.7519000173    1.2828799486
   2.8346099854    2.9899199009    1.3718999624
   1.5575000048    1.1164699793    8.7253704071
   0.0604300015    3.4271299839    8.6500997543
   4.3380098343    1.0793199539    8.7025699615
   2.9087200165    3.4589400291    8.7606601715
   0.0182499997    1.7998700142    6.5536999702
  -1.3322499990    4.2017598152    6.6522002220
   2.9243700504    1.9654300213    6.5345802307
   1.5758199692    4.1778798103    6.6713500023
   0.6443799734    2.1539900303   13.7077598572
  -0.7974200249    4.6220297813   13.7555599213
   3.4179799557    2.1072499752   13.6966600418
   2.0743200779    4.4909100533   13.8205604553
   0.6500800252    0.5382999778   11.7696599960
  -0.7597100139    2.8919200897   11.6181602478
   3.4308600426    0.5771200061   11.6642599106
   2.2224600315    2.8322401047   11.5600595474
