Li6 Co12 O24 
1.0
5.5418324470520020e+00 0.0000000000000000e+00 0.0000000000000000e+00 
-2.7502279281616211e+00 4.9326405525207520e+00 0.0000000000000000e+00 
-6.6295570135116577e-01 6.5036851167678833e-01 1.5302835464477539e+01 
Li Co O 
6 12 24 
Cartesian
   4.8492598534    0.6671800017   15.0516901016
   2.4905700684    2.6293199062    4.8971099854
  -0.3185699880    1.5895999670   10.0914402008
  -1.5665199757    4.0983500481   10.3509197235
   2.3682599068    1.8595800400   10.2007503510
   0.8655800223    4.2967700958    9.9966602325
  -0.1830900013    2.2547700405    2.3091800213
  -1.5899800062    4.7280201912    2.4725499153
   2.5640299320    2.3022699356    2.3614099026
   1.1017700434    4.7392101288    2.2721800804
  -3.0146000385    5.1358299255    7.8303599358
   3.7854599953    2.7370800972    7.9654397964
  -0.3377200067    5.2351899147    7.8778200150
   1.1535199881    2.7185499668    7.8428001404
   0.9140499830    0.9876000285   12.7539901733
  -0.4880500138    3.4137001038   12.8132896423
   3.7027599812    0.9578899741   12.6776895523
   2.3176500797    3.4345400333   12.6679897308
  -0.3371500075    0.6335099936    3.3775300980
  -1.5842000246    3.0858199596    3.3046300411
   2.5109601021    0.5628299713    3.3609800339
   1.1933100224    3.0649099350    3.3676900864
   1.0961500406    1.3961299658    1.3935199976
  -0.2936300039    3.8790900707    1.4263499975
   4.0043702126    1.4304300547    1.4001300335
   2.6056599617    3.9176800251    1.4044100046
   1.1670199633    1.1654900312    8.9608297348
  -0.3631399870    3.4777100086    9.0728902817
   3.6689798832    1.0319399834    9.1140203476
   2.3905000687    3.5302700996    8.9372901917
  -0.3994599879    1.8725600243    7.0458002090
  -1.7614300251    4.3964500427    6.8643097878
   2.4500899315    1.9241800308    6.7889800072
   0.9548000097    4.3207302094    6.7539901733
  -0.4347099960    1.8008400202   13.6124897003
  -1.8584400415    4.4622998238   13.6642904282
   2.2781100273    1.8374700546   13.6652898788
   0.9046900272    4.2690601349   13.5880899429
   2.3571300507    5.1404099464   11.6432895660
   3.7236700058    2.5672900677   11.7716903687
  -0.3912999928    5.0644598007   11.6147899628
   0.8280599713    2.5396399498   11.7430896759
