Li6 Co12 O24 
1.0
5.4667873382568359e+00 0.0000000000000000e+00 0.0000000000000000e+00 
-2.7407188415527344e+00 4.7732820510864258e+00 0.0000000000000000e+00 
1.5095162391662598e-01 9.6506059169769287e-02 1.3114145278930664e+01 
Li Co O 
6 12 24 
Cartesian
   2.6237099171    0.2518700063    0.0064200000
   4.0630598068    0.6680600047    4.3555698395
   3.0169000626    3.3652698994    4.2759799957
   0.2445899993    1.4766800404    8.8181495667
  -1.2656300068    3.9651501179    8.7109899521
   1.3931800127    3.7042200565    8.7908697128
   0.0525199994    1.5877900124    2.0025000572
  -1.2956399918    3.9926800728    2.2153298855
   2.8507900238    1.7128399611    2.0924201012
   1.4515099525    3.9656300545    1.8963299990
   2.7276399136    4.7983198166    6.5222201347
  -1.2929500341    2.4919300079    6.5648899078
   2.8809199333    0.0486400016    6.5743999481
   1.4625200033    2.3972198963    6.4437699318
   1.4417099953    0.8890299797   11.1273698807
   0.0256600007    3.2848000526   11.0229701996
   4.1931600571    0.9546899796   11.1051702499
   2.7568099499    3.2045500278   11.1288700104
   2.7247800827    4.7584300041    3.0681099892
  -1.1991300583    2.4197199345    3.0843698978
   0.1677300036    4.6915202141    3.0875101089
   1.5254000425    2.4850099087    3.0521600246
   1.5773899555    0.8119199872    1.1794300079
   0.0034399999    3.1554000378    1.1217700243
   4.1472401619    0.7170900106    1.0659600496
   2.7789299488    3.4206500053    1.0342099667
   1.3147900105    0.7979000211    7.5461602211
   0.0816899985    3.2070000172    7.5693597794
   4.1390700340    0.8695600033    7.6754598618
   2.7506399155    3.1794500351    7.5346198082
   0.0394299999    1.7049100399    5.4370298386
  -1.3901300430    4.0740299225    5.6847701073
   2.8880400658    1.5897400379    5.4669799805
   1.4192399979    3.9365301132    5.5247001648
   0.0905900002    1.6605999470   12.0604696274
  -1.2311500311    4.0180897713   12.0213699341
   2.8212199211    1.6855399609   12.0610704422
   1.3249800205    4.0242900848   11.9835700989
   2.7619299889    4.7709398270   10.1498699188
  -1.2620199919    2.4905300140   10.1257696152
   0.0974100009    4.8457098007    9.9906702042
   1.4317899942    2.4588999748   10.1831703186
