Li6 Co12 O24 
1.0
5.6192770004272461e+00 0.0000000000000000e+00 0.0000000000000000e+00 
-2.7872173786163330e+00 4.8764820098876953e+00 0.0000000000000000e+00 
-1.4384682476520538e-01 5.8730453252792358e-01 1.4707042694091797e+01 
Li Co O 
6 12 24 
Cartesian
   3.2332499027    1.0095000267   14.6685895920
   2.9753899574    3.7088499069    5.0777502060
  -0.2959299982    1.5558199883   10.0148897171
  -1.5138100386    4.2144899368   10.1699600220
   2.6086499691    1.9217900038    9.8799600601
   1.4167200327    4.2934498787    9.9294004440
   0.1712200046    2.0952498913    2.3441600800
  -1.2144500017    4.5566802025    2.4321599007
   2.9875600338    2.1653800011    2.3275499344
   1.6708600521    4.5887799263    2.3254699707
   2.6026599407    5.0839600563    7.4898400307
   4.0770502090    2.7069199085    7.5509500504
  -0.2086499929    5.1673798561    7.4357500076
   1.1860699654    2.7423501015    7.4461998940
   1.1536300182    1.0425699949   12.2345104218
  -0.1627700031    3.2218499184   12.1849098206
   3.9494099617    0.9582200050   12.2310104370
   2.6906299591    3.3361198902   12.1758098602
   0.1753299981    0.4369899929    3.3220999241
  -1.2865099907    2.8798899651    3.3465099335
   3.0086600780    0.5618100166    3.3565700054
   1.6970599890    3.0999898911    3.3642799854
   1.5721199512    1.3712600470    1.4878200293
   0.0971399993    3.6429400444    1.3494900465
   4.3462200165    1.2496999502    1.3464499712
   3.1154100895    3.7263801098    1.4030300379
   1.1491999626    0.9483000040    8.3661403656
  -0.1043599993    3.5159800053    8.4178304672
   4.0138502121    1.1266100407    8.4951095581
   2.6403899193    3.5801599026    8.5969696045
  -0.2192099988    1.8320200443    6.5269899368
  -1.5080200434    4.2442197800    6.6329698563
   2.5374400616    1.9760999680    6.4694800377
   1.1964800358    4.2001500130    6.5009899139
  -0.3040199876    1.6886600256   13.1997098923
  -1.4638199806    4.2460799217   12.9867095947
   2.5852499008    1.8625500202   13.2280101776
   1.2872300148    4.2318902016   13.1034097672
   2.5686099529    5.0531101227   11.1186103821
   4.0355901718    2.5360000134   11.2018098831
  -0.1005299985    5.1337699890   11.2895097733
   1.2022199631    2.5945401192   11.1662101746
