Li6 Co12 O24 
1.0
5.5750060081481934e+00 0.0000000000000000e+00 0.0000000000000000e+00 
-2.7573606967926025e+00 4.8498077392578125e+00 0.0000000000000000e+00 
-1.4460473060607910e+00 9.5988862216472626e-02 1.5232564926147461e+01 
Li Co O 
6 12 24 
Cartesian
   0.2331500053    4.6299600601    0.0306700002
   1.6091099977    3.4594099522    5.0256199837
  -0.6394400001    1.7172000408   10.1791896820
  -2.3815801144    4.1129899025   10.1224298477
   2.1054100990    1.6468000412   10.3410902023
   0.6582499743    4.2627701759   10.2736701965
  -0.6071299911    1.5489900112    2.4633600712
  -1.9871300459    3.9555900097    2.4448599815
   2.1415801048    1.5470600128    2.3505499363
   0.8206899762    3.9224400520    2.3313500881
   1.9967000484    4.7945899963    7.7557001114
   3.3983299732    2.3580000401    7.8719501495
  -0.8352199793    4.8980298042    7.7814102173
   0.6154800057    2.5524001122    7.8599200249
   0.5791400075    1.0564399958   12.5920200348
  -0.7142500281    3.3755300045   12.5965204239
   3.4059500694    0.9884499907   12.6332197189
   2.0583798885    3.4065299034   12.6687202454
   2.3147699833    4.7886600494    3.4007000923
   3.6734499931    2.3630599976    3.3892099857
  -0.6193699837    4.7558398247    3.3069300652
   0.8246399760    2.3478300571    3.4563300610
   0.8775399923    0.7743399739    1.4327600002
  -0.6427299976    3.0092298985    1.4158899784
   3.6138401031    0.8723999858    1.3765000105
   2.4871799946    3.3156499863    1.3852699995
   0.5092999935    0.8367099762    8.9014101028
  -0.7819100022    3.3699400425    8.9308900833
   3.4048500061    0.8633499742    9.0344495773
   2.0674400330    3.2665500641    8.9030799866
  -0.6839399934    1.6496499777    6.8498802185
  -2.3343100548    4.0363698006    6.7997198105
   2.0703499317    1.7250000238    6.8606300354
   0.6814399958    4.0823302269    6.8261299133
  -0.8246600032    1.8933399916   13.5446195602
  -2.0963499546    4.2670297623   13.6113195419
   2.0656800270    1.8065199852   13.5710201263
   0.5941600204    4.2186398506   13.6399202347
  -0.7601600289    0.0778499991   11.6253204346
  -2.1730298996    2.6534700394   11.5109195709
   2.0817799568    0.1779399961   11.5785198212
   0.5818600059    2.7149200439   11.5861196518
