Li6 Co12 O24 
1.0
5.6490750312805176e+00 0.0000000000000000e+00 0.0000000000000000e+00 
-2.8612916469573975e+00 4.9924898147583008e+00 0.0000000000000000e+00 
-5.5243009328842163e-01 -2.4152041971683502e-01 1.4564439773559570e+01 
Li Co O 
6 12 24 
Cartesian
   2.0422899723   -0.2388100028   14.5494604111
   2.7679700851    3.1022601128    4.8187398911
  -0.4370799959    1.6188299656    9.7626199722
  -1.8517999649    3.9733300209    9.8044004440
   2.4890599251    0.8713499904    9.6280803680
   0.7567800283    3.8641800880    9.8858499527
  -0.0088099996    1.7442300320    2.4188001156
  -1.3916100264    4.2750601768    2.4464199543
   2.8346400261    1.8189799786    2.4108600616
   1.3977099657    4.2996897697    2.5453400612
   2.3057899475    4.7891798019    7.3460202217
   3.7769498825    2.3650500774    7.3187599182
  -0.4589599967    4.7610898018    7.2384700775
   0.9666799903    2.3062698841    7.3724298477
   0.9986199737    0.5473099947   12.0603599548
  -0.4660699964    3.0704998970   12.0688600540
   3.7959799767    0.5156900287   12.0190601349
   2.3031899929    3.0073800087   12.1762599945
   0.1597200036   -0.0219899993    3.4806699753
  -1.4718500376    2.6587300301    3.4047300816
   2.8307900429    0.0894000009    3.4073998928
   1.4462000132    2.5253300667    3.5874199867
   1.5323499441    0.9702100158    1.3604799509
   0.0519200005    3.7448399067    1.4623099566
   4.2080001831    0.8600199819    1.4710199833
   2.8639800549    3.6086499691    1.4929699898
   1.0237699747    0.7041000128    8.3686599731
  -0.3097899854    3.2134199142    8.3368501663
   3.7413198948    0.7410100102    8.3879404068
   2.3412699699    3.2302498817    8.4157400131
  -0.3884600103    1.5538500547    6.4430499077
  -1.8883800507    3.8388400078    6.3492898941
   2.3508999348    1.6910699606    6.2073001862
   0.9779400229    4.0098600388    6.3532299995
  -0.2948000133    1.3864899874   12.8969602585
  -1.7622200251    3.8125998974   13.1179599762
   2.4958500862    1.3485000134   12.9187602997
   0.9483699799    3.9143600464   13.0717601776
   2.3804700375    4.6476302147   11.0040597916
   3.6872301102    2.2849099636   11.0762596130
  -0.5194500089    4.6681699753   10.8837604523
   0.8987699747    2.1887500286   10.8965597153
