Li6 Co12 O24 
1.0
5.6722521781921387e+00 0.0000000000000000e+00 0.0000000000000000e+00 
-2.7240631580352783e+00 4.8157768249511719e+00 0.0000000000000000e+00 
7.1170443296432495e-01 -3.7137484550476074e-01 1.4181343078613281e+01 
Li Co O 
6 12 24 
Cartesian
   3.4746100903   -0.3197799921   14.1645097733
   4.6629700661    0.4826399982    4.6913199425
   3.1735401154    2.7647500038    4.9730401039
   0.2527399957    1.3865499496    9.2518301010
  -0.7741400003    4.0608401299    9.3706302643
   1.7672300339    4.1598601341    9.3488702774
   0.3226200044    1.3309700489    2.4615399837
  -0.9725400209    3.7147998810    2.5725300312
   3.2203400135    1.3673700094    2.4733901024
   1.9141099453    3.7258999348    2.5126099586
   0.4131000042   -0.1251700073    7.0429801941
  -0.9428399801    2.3037600517    7.1292700768
   3.1977798939   -0.1137999967    7.1535501480
   1.7153400183    2.3056600094    7.0801601410
   1.7722400427    0.6635599732   11.6382303238
   0.4638299942    3.0395300388   11.6340303421
   4.6906099319    0.6117600203   11.7859296799
   3.2448399067    3.0593600273   11.6598300934
   3.2398600578    4.4317197800    3.5071599483
  -1.0724200010    2.1807699203    3.4094600677
   0.4864999950    4.5500798225    3.6252000332
   1.7820199728    2.1902899742    3.3812799454
   1.9212299585    0.4608399868    1.5724600554
   0.2943600118    2.9090800285    1.4813300371
   4.5404200554    0.5271800160    1.5012700558
   3.2274799347    2.9628100395    1.6409000158
   1.7539600134    0.7078199983    8.1444396973
   0.3998399973    3.0661499500    8.1871004105
   4.7590699196    0.5972200036    8.0931596756
   3.3139200211    3.0705099106    8.0743703842
   0.3281799853    1.3384799957    6.0450701714
  -1.0107899904    3.9297199249    6.1465201378
   3.2963399887    1.4921900034    6.1759800911
   2.1197299957    3.9540600777    6.0083498955
   0.3424099982    1.4819400311   12.5633296967
  -0.9372599721    3.9299800396   12.6486301422
   3.2220799923    1.4207099676   12.6687297821
   1.9360300303    3.7146699429   12.7050304413
   6.0043301582   -0.1128799990   10.6892299652
   4.6966199875    2.3698999882   10.7331304550
   3.2294099331    0.0238799993   10.8129301071
   1.8041599989    2.2612500191   10.6636295319
