Li6 Co12 O24 
1.0
5.7293853759765625e+00 0.0000000000000000e+00 0.0000000000000000e+00 
-2.9605178833007812e+00 4.7884984016418457e+00 0.0000000000000000e+00 
-8.1044536828994751e-01 1.0509016513824463e+00 1.5127673149108887e+01 
Li Co O 
6 12 24 
Cartesian
  -0.5979099870    5.1115698814   14.8782100677
   0.4221400023    3.5299799442    5.2939701080
  -0.6002799869    2.5295000076   10.0416603088
  -1.8925900459    4.9386100769   10.1415700912
   1.9829499722    2.5143499374   10.0277395248
   1.0515099764    4.9559302330    9.9588298798
  -0.1547300071    1.3804099560    2.5539999008
  -1.6907700300    3.8047900200    2.7194299698
   2.6788299084    1.3933900595    2.6216700077
   1.2263900042    3.7829799652    2.6413099766
  -0.4802600145    0.7608799934    7.5216498375
  -1.9521399736    3.2042999268    7.5581398010
   2.3404500484    0.8421099782    7.6809802055
   0.8250200152    3.1661798954    7.7127099037
   0.9464100003    1.7441099882   12.4035100937
  -0.5821400285    4.1196298599   12.4069099426
   3.7373299599    1.7646000385   12.4345102310
   2.2992799282    4.1969900131   12.5306100845
   2.5285699368    4.6814699173    3.6519699097
   4.1409502029    2.1694400311    3.6294100285
  -0.2604799867    4.6749401093    3.6269299984
   1.2434200048    2.2687799931    3.6072099209
   1.2178800106    0.6146100163    1.7077000141
  -0.2081200033    2.9810199738    1.6032500267
   4.1096901894    0.5585600138    1.5218499899
   2.6735401154    3.0342600346    1.6758799553
   0.8990899920    1.5705399513    8.6875495911
  -0.6447299719    4.1331200600    8.7169303894
   3.8672299385    1.5859700441    8.6559295654
   2.2016899586    4.0954999924    8.6546497345
  -0.4773499966    2.3431699276    6.6542501450
  -1.9332000017    4.9004001617    6.7195401192
   2.3979699612    2.4416201115    6.6728401184
   0.8490899801    4.7506799698    6.6073498726
  -0.5821200013    2.5029098988   13.2719097137
  -1.9968500137    4.9385099411   13.5440101624
   2.2918000221    2.5736200809   13.3956098557
   0.8005999923    5.0212001801   13.3828096390
  -0.5344899893    0.9970300198   11.4122104645
  -2.1911299229    3.3493399620   11.3986101151
   2.3344299793    0.8908100128   11.4266099930
   0.7943500280    3.4582300186   11.4019098282
