Li6 Co12 O24 
1.0
5.5747127532958984e+00 0.0000000000000000e+00 0.0000000000000000e+00 
-2.7732758522033691e+00 4.8330674171447754e+00 0.0000000000000000e+00 
-4.2032252997159958e-02 -1.2355925887823105e-01 1.2568443298339844e+01 
Li Co O 
6 12 24 
Cartesian
  -0.0509999990    4.7810101509    0.1042800024
   2.9592900276    3.0044000149    4.1679100990
  -0.1363400072    1.4401700497    8.3029098511
  -1.2400499582    4.0060701370    8.2969303131
   2.7320599556    1.4688099623    8.2343101501
   1.4250799417    3.8965699673    8.1987800598
  -0.0098900003    1.6670099497    2.0322198868
  -1.4230500460    4.1168999672    2.0792999268
   2.7577199936    1.6678600311    2.1460800171
   1.3951300383    4.0995697975    2.1193099022
  -2.7497599125    4.7165999413    6.1047000885
  -1.3323099613    2.3002300262    6.1092300415
   0.0339500010    4.6851701736    6.0988698006
   1.3676500320    2.3087899685    6.1059699059
   1.3365099430    0.7200999856   10.6978797913
  -0.0312200002    3.1021399498   10.6635799408
   4.1157999039    0.7295799851   10.5563802719
   2.7618699074    3.0933198929   10.7676801682
  -0.0311799999    0.1141899973    3.0156400204
  -1.3768899441    2.4012799263    3.0534598827
   2.6887900829   -0.0229499992    3.0155100822
   1.3502999544    2.5255300999    3.0062201023
   1.3745199442    0.8978499770    1.1638000011
  -0.0393700004    3.2672200203    1.0774300098
   4.0953397751    0.7723199725    1.0927499533
   2.7909901142    3.3047299385    1.2613799572
   1.4102599621    0.7327100039    7.0817899704
  -0.0091000004    3.0576300621    7.2226500511
   4.1427998543    0.6510499716    7.1221599579
   2.7684299946    3.1481099129    7.1629700661
   0.0618899986    1.4988299608    5.1143598557
  -1.3776899576    3.8982698917    5.2138199806
   2.7925400734    1.4817299843    5.1588997841
   1.3727300167    3.8181600571    5.1387100220
  -0.0773800015    1.5102399588   11.5216798782
  -1.4518500566    3.8852100372   11.6711797714
   2.7299599648    1.3927500248   11.5992803574
   1.3956999779    3.9724900723   11.5542802811
   0.0439600013   -0.0739300027    9.7195796967
   4.0862298012    2.3294699192    9.6437797546
  -0.0486200005    4.6936898232    9.6074800491
   1.4386299849    2.3331201077    9.5429801941
