Li6 Co12 O24 
1.0
5.7113752365112305e+00 0.0000000000000000e+00 0.0000000000000000e+00 
-2.8055946826934814e+00 4.8173251152038574e+00 0.0000000000000000e+00 
9.9760645627975464e-01 -2.3889398574829102e+00 1.4484560012817383e+01 
Li Co O 
6 12 24 
Cartesian
   1.4921900034    1.9521199465   14.2809295654
   3.6388499737    1.8148000240    4.8019800186
   5.0100598335   -0.2677699924    5.1711401939
  -0.8352000117    2.9416999817    9.5322904587
   0.5757700205    0.4201000035    9.5979204178
   3.1682999134    0.4704099894    9.4524497986
  -0.9319499731    2.6403799057    2.5817599297
   0.5093200207    0.2345300019    2.5537800789
   1.9182699919    2.6974000931    2.5346601009
   3.3232200146    0.1102100015    2.6122200489
  -0.9373499751    1.3265999556    7.2398900986
   0.4782699943   -1.1026799679    7.2937002182
   1.8894499540    1.3295099735    7.2560000420
   3.3568201065   -1.1446100473    7.2678198814
   0.5525500178    2.1185600758   11.8618297577
   1.9683400393   -0.3228600025   12.0046300888
   3.3927299976    2.1348299980   11.8968296051
   4.8872599602   -0.1912399977   11.9282302856
   4.7008199692    0.9726200104    3.6116700172
   3.3099501133    3.4883201122    3.4949300289
   1.9196200371    1.1262600422    3.5905499458
   0.5757200122    3.2885599136    3.6005699635
   0.5168499947    1.8866200447    1.5818799734
  -0.8715400100    4.2290000916    1.5766400099
   3.3086099625    1.9008100033    1.6056699753
   1.9751100540    4.3287200928    1.5488300323
   0.4130200148    1.9497799873    8.2675504684
   1.8628000021   -0.4601100087    8.3510599136
   3.4456698895    1.9391100407    8.2566404343
   4.7018399239   -0.1551499963    8.1483097076
  -0.9181699753    2.8430399895    6.3490700722
   0.4657000005    0.5448600054    6.2774901390
   2.0604400635    2.9079499245    6.2352499962
   3.3407900333    0.4894300103    6.3026700020
   1.9660300016   -2.0079500675   12.8324298859
   0.5612199903    0.6409100294   12.8716297150
   4.8303298950   -1.8582700491   12.9005298615
   3.4536800385    0.4824500084   12.8643302917
  -0.8918700218    1.4196300507   10.8702297211
   0.5795900226   -1.0147500038   11.0187301636
   1.9645899534    1.2738599777   10.9303302765
   3.2908599377   -1.0718899965   10.8958301544
