Li6 Co12 O24 
1.0
5.6763892173767090e+00 0.0000000000000000e+00 0.0000000000000000e+00 
-2.8772659301757812e+00 4.9315552711486816e+00 0.0000000000000000e+00 
-3.9721852540969849e-01 -3.0518072843551636e-01 1.6115804672241211e+01 
Li Co O 
6 12 24 
Cartesian
   0.6620600224    0.1301400065   14.9493398666
  -0.0620599985    2.8540499210    5.9607300758
   2.0645198822    4.3723502159   10.6239204407
   3.8706700802    1.7619199753   10.8693599701
  -0.7385299802    4.5087800026   10.8590202332
   0.9288399816    1.6371500492   10.5443696976
  -0.5408300161    3.2410199642    3.0286500454
   0.8813499808    0.7794200182    2.9843800068
   2.3034799099    3.3426799774    3.0349900723
   3.7518799305    0.7613899708    2.9877800941
   2.0648899078    2.7338700294    8.3080902100
   3.5669898987    0.3249999881    8.1998500824
  -0.6796500087    2.7459700108    8.3571796417
   0.7166000009    0.2520299852    8.1307601929
  -2.1364800930    3.4867999554   12.9028396606
  -0.7111399770    0.9759799838   12.9305400848
   0.7871299982    3.5708000660   12.9610395432
   2.3077299595    0.9772300124   12.9549398422
  -0.5072000027    1.7308700085    4.1099901199
  -1.9829200506    4.1606397629    3.9533500671
   2.2928400040    1.6109999418    3.9254100323
   0.8203700185    3.9601900578    4.0183601379
   0.8089100122    2.4178500175    2.1264400482
  -0.5501700044    4.8924598694    2.0209600925
   3.6297199726    2.5218501091    2.0909299850
   5.1389198303   -0.0170799997    2.0730700493
  -2.1446099281    3.4825899601    9.3124599457
  -0.6030499935    1.0980399847    9.2719802856
   0.6975100040    3.7254700661    9.3488397598
   2.0785000324    1.1336100101    9.1112604141
   1.9285900593    4.2196798325    7.2637500763
   3.5127499104    1.8615200520    7.3918499947
  -0.6876000166    4.2010598183    7.2844400406
   0.7787600160    1.8268899918    7.2750301361
   2.1783900261    4.3249697685   13.9629402161
   3.5486400127    1.8057500124   13.8186397552
  -0.5724099874    4.4267401695   13.8686399460
   0.8428099751    1.7849600315   13.7891397476
   2.1488199234    2.5892701149   11.8932399750
   3.6653399467    0.0139100002   11.7897396088
  -0.6237099767    2.7423501015   11.9501399994
   0.7463799715    0.1755699962   11.8132400513
