Li6 Co12 O24 
1.0
5.6669559478759766e+00 0.0000000000000000e+00 0.0000000000000000e+00 
-2.8959677219390869e+00 4.9256849288940430e+00 0.0000000000000000e+00 
7.6250690221786499e-01 -2.0726416110992432e+00 1.3368740081787109e+01 
Li Co O 
6 12 24 
Cartesian
   3.4232299328   -1.0634399652   13.2583503723
   2.8549599648    2.6009800434    4.2894501686
   0.6305099726    0.6955400109    8.8203601837
  -0.9725999832    2.9715600014    8.9174995422
   3.6865599155    0.3346999884    8.9228000641
   2.0607900620    2.8694400787    9.1194896698
   0.0738599971    0.9599000216    2.4505500793
  -1.3445400000    3.4345500469    2.4248199463
   2.9896500111    0.9563099742    2.3452000618
   1.6170899868    3.3910999298    2.1295800209
   3.1736800671    3.6445500851    6.6546401978
   4.6603097916    1.1930899620    6.5367398262
   0.4065299928    3.7073500156    6.4955101013
   1.8788199425    1.1734000444    6.6387300491
   1.9754899740   -0.3758299947   11.1793498993
   0.4971399903    2.0634000301   11.0578498840
   4.7717399597   -0.3538199961   11.1056499481
   3.2638399601    2.0714600086   11.2201499939
   2.9799199104    4.1674900055    3.3789000511
   4.3171801567    1.7174999714    3.2320001125
   0.0833600014    4.2712202072    3.1549499035
   1.6019500494    1.9048000574    3.2009301186
   1.4696199894    0.2123399973    1.5148600340
   0.1022100002    2.5977299213    1.4039299488
   4.2928800583    0.2241899967    1.2977499962
   3.0155301094    2.4969799519    1.3453500271
   1.9025800228   -0.4288299978    7.5973601341
   0.3836899996    2.0279400349    7.4615101814
   4.8012900352   -0.4252400100    7.6149997711
   3.2429199219    2.0066299438    7.7086801529
   0.5304099917    0.3714199960    5.7233300209
  -1.1271699667    2.8602099419    5.7384700775
   3.3133900166    0.4868899882    5.5618700981
   1.8401700258    2.8450698853    5.6845397949
   0.5258399844    0.4776999950   12.1460504532
  -0.8839799762    2.8638598919   12.1227502823
   3.3163199425    0.3660500050   12.1120500565
   1.7632700205    2.9294400215   12.0486497879
   0.4669399858   -1.1810400486   10.0877504349
  -0.9353100061    1.3769299984   10.1316499710
   3.3637399673   -1.2483400106   10.1062498093
   1.9595299959    1.2755500078   10.1406497955
