Li6 Co12 O24 
1.0
5.6183614730834961e+00 0.0000000000000000e+00 0.0000000000000000e+00 
-2.8124356269836426e+00 4.8573966026306152e+00 0.0000000000000000e+00 
1.2608091831207275e+00 7.5188350677490234e-01 1.4524237632751465e+01 
Li Co O 
6 12 24 
Cartesian
   1.6670399904    0.9772800207   14.4998197556
   3.3081099987    0.3142699897    0.1139800027
   4.4198999405    0.8097800016    4.8653898239
   3.3640499115    3.3728001118    4.8607201576
   1.3162499666    2.6254301071    9.5283803940
   4.3679099083    4.0994501114    9.8387899399
   0.3922599852    1.7759699821    2.4483499527
  -0.9277399778    4.2402701378    2.3496301174
   3.2268300056    1.8122700453    2.3017599583
   1.8941899538    4.0950498581    2.4826800823
   2.9786798954    5.0475797653    7.3128399849
   4.4046797752    2.6126899719    7.2401099205
   0.1945499927    5.0897297859    7.2347397804
   1.5871700048    2.5947799683    7.1754097939
   2.5870299339    1.5958299637   12.1992902756
   1.2237999439    3.9449999332   12.2155895233
   5.4487700462    1.5478099585   12.0529899597
   4.0356698036    4.1464400291   12.1238899231
   5.9064202309    0.1972900033    3.4722099304
  -0.9560899734    2.5965900421    3.3491299152
   0.4721800089    4.9050798416    3.4134800434
   1.7323100567    2.5384700298    3.3790299892
   1.7872799635    1.0589100122    1.3483200073
   0.4228799939    3.4087901115    1.4494800568
   4.5819997787    0.8804000020    1.2925100327
   3.2837700844    3.4121999741    1.3830399513
   1.7014600039    0.9939399958    8.1889696121
   0.2710700035    3.4092500210    8.1920795441
   4.3967800140    0.9818300009    8.2592601776
   2.9805300236    3.3649299145    8.2509698868
   0.1861599982    1.7774699926    6.2572598457
  -1.1037000418    4.3404798508    6.1838197708
   3.1998600960    1.8704299927    6.1115899086
   1.7584500313    4.2887401581    6.2140297890
   1.1725100279    2.2440800667   13.1553897858
  -0.1355199963    4.8449401855   13.1252899170
   4.0658698082    2.4705998898   13.2331895828
   2.7036700249    4.7717499733   13.1744899750
   1.3570499420    0.8377000093   11.0746898651
  -0.1801899970    3.3080899715   11.1335897446
   4.1119599342    0.7589300275   11.1709899902
   2.6684401035    3.2312700748   11.1497898102
