Li6 Co12 O24 
1.0
5.5333037376403809e+00 0.0000000000000000e+00 0.0000000000000000e+00 
-2.8105165958404541e+00 4.9859166145324707e+00 0.0000000000000000e+00 
-1.7298372983932495e+00 -1.5931043624877930e+00 1.4274589538574219e+01 
Li Co O 
6 12 24 
Cartesian
  -4.2857899666    3.1801300049   14.2720804214
  -1.4957300425    3.2889399529   14.1589803696
  -0.0701100007    0.6818500161   14.2662000656
  -1.5799100399    2.6716699600    5.0093998909
   1.1520500183    0.5513899922    9.7001695633
  -0.1519500017    3.8011100292    9.3447399139
   0.4606699944    1.5838099718    2.5953199863
  -0.9735199809    4.1195402145    2.6189100742
   3.1491799355    1.6846599579    2.4714400768
   1.7638399601    4.1022100449    2.6596999168
   3.9635400772   -0.5754899979    7.0604901314
   2.6461501122    1.9070199728    6.9786701202
   1.2412899733   -0.6297600269    6.9214701653
  -0.0598599985    1.7943899632    6.9694299698
  -0.2400700003   -0.9360899925   11.6426801682
  -1.5446399450    1.6759599447   11.8987798691
   2.5714900494   -0.9129599929   11.8764801025
   1.1930799484    1.5479300022   11.8922796249
   0.5463700294    0.0312799998    3.6458098888
  -0.9569900036    2.4529800415    3.4174699783
   3.1413500309   -0.1270100027    3.5196099281
   1.8376599550    2.4208700657    3.5894401073
   1.8174899817    0.6901800036    1.3819999695
   0.3593400121    3.2727799416    1.6331800222
   4.6169700623    0.7168099880    1.5609899759
   3.1002800465    3.3346800804    1.5427500010
  -0.1367900074    0.1956000030    7.9121999741
  -1.5188699961    2.5196399689    8.0423297882
   2.4321999550    0.3018699884    7.9934401512
   1.1657099724    2.7760100365    8.0253696442
  -1.4901100397    1.0642700195    5.9625902176
  -3.0353798866    3.5589199066    6.0758399963
   1.2742300034    1.0986800194    5.9266600609
  -0.1555200070    3.5075700283    6.0519700050
  -1.5248399973   -0.0416500010   12.8357801437
  -2.8843600750    2.4970300198   12.9077796936
   1.1423000097   -0.1274600029   12.7486801147
  -0.2261500061    2.4907701015   12.9776802063
   1.0767799616    3.1391999722   10.8459796906
   2.6938700676    0.7238100171   10.8677797318
  -1.6361099482    3.1357998848   10.7796802521
  -0.3698199987    0.8254799843   10.7989797592
