Li6 Co12 O24 
1.0
5.7931575775146484e+00 0.0000000000000000e+00 0.0000000000000000e+00 
-2.8595066070556641e+00 4.9343228340148926e+00 0.0000000000000000e+00 
-4.9446159601211548e-01 7.9247593879699707e-02 1.5239093780517578e+01 
Li Co O 
6 12 24 
Cartesian
   0.4438099861    0.6638600230   15.2276296616
   0.9832299948    1.0009800196    5.4010300636
  -2.0627300739    4.4694800377   10.0058097839
  -0.7690899968    1.9589500427   10.0450296402
   0.6598200202    4.4721097946   10.0617799759
   2.1994299889    1.7857899666   10.2664499283
  -0.6520100236    3.8903100491    2.6590600014
   0.7960500121    1.4248000383    2.6141800880
   2.2863399982    3.8091599941    2.7975099087
   3.6743299961    1.3864899874    2.5784199238
   3.5570199490    2.6790499687    7.7200698853
   5.0038299561    0.2697399855    7.7908802032
   0.7138000131    2.6595900059    7.7559700012
   2.0865700245    0.2358500063    7.8443198204
  -0.6158499718    3.5043001175   12.3966302872
   0.7689999938    1.0477199554   12.2803297043
   2.1925699711    3.6466600895   12.4594297409
   3.6355600357    1.1048400402   12.5467300415
  -0.6702600121    2.0304698944    3.6258900166
  -1.9980200529    4.7393798828    3.5944199562
   2.2729399204    2.1621799469    3.6383299828
   0.6949200034    4.7284598351    3.6308100224
   0.7482799888    3.0866799355    1.6764400005
   2.1380200386    0.6129599810    1.6459499598
   3.6792600155    3.0205099583    1.7760800123
   5.2094898224    0.5769699812    1.7352099419
  -0.7505999804    3.4369399548    8.8843603134
   0.6538299918    1.0803099871    8.8927202225
   2.1691300869    3.3670001030    8.7795295715
   3.4790101051    1.0653899908    8.8386201859
  -2.2680799961    4.2849998474    6.8496899605
  -0.6151599884    1.9628100395    6.8876600266
   0.7373899817    4.3174600601    6.8741297722
   2.1448199749    1.7455300093    6.8168001175
  -2.0758500099    4.4060797691   13.2825298309
  -0.5985400081    1.8600300550   13.3025302887
   0.8501099944    4.3764700890   13.4411296844
   2.1800301075    2.0431900024   13.3518295288
   3.6346900463    2.7367799282   11.3350296021
   5.1198601723    0.2552300096   11.3673295975
   0.8005300164    2.8742899895   11.2956304550
   2.2478899956    0.2210800052   11.4310302734
