Li6 Co12 O24 
1.0
5.6536784172058105e+00 0.0000000000000000e+00 0.0000000000000000e+00 
-2.8563582897186279e+00 4.8572196960449219e+00 0.0000000000000000e+00 
7.5414377450942993e-01 -1.3675694465637207e+00 1.4567167282104492e+01 
Li Co O 
6 12 24 
Cartesian
   6.1639699936   -1.2990100384   14.2814598083
   3.3119499683   -1.0367300510   14.5545597076
   1.8398900032    1.3964200020   14.5103902817
   2.5421500206    1.6974699497    4.6764998436
   3.5378799438    0.4534400105    9.8933496475
   2.0629000664    2.7512600422    9.8925600052
   0.0179099999    1.9370800257    2.4281799793
  -1.3611299992    4.4754500389    2.4035499096
   2.9105799198    1.9835200310    2.2567000389
   1.4807000160    4.2719402313    2.5479800701
   3.2262699604    3.6003599167    7.2400798798
   4.7466697693    1.1522699594    7.3201198578
   0.4170500040    3.6322700977    7.1992797852
   1.8376499414    1.1824599504    7.2299499512
   2.0992999077   -0.3440499902   12.1524600983
   0.5926499963    2.0732901096   12.1656599045
   4.8694901466   -0.3023000062   12.1286602020
   3.3678300381    2.0819799900   12.2104597092
   0.1259199977    0.3087599874    3.4145700932
  -1.4161599874    2.8531000614    3.2788999081
   2.8210198879    0.3764399886    3.3031001091
   1.3971300125    2.6387200356    3.3777101040
   1.3713799715    1.2563600540    1.2479799986
  -0.0113000004    3.5780301094    1.4297499657
   4.3997597694    1.0579099655    1.3789199591
   2.9738099575    3.6768300533    1.5206400156
   1.8862299919   -0.3204700053    8.2481403351
   0.3354400098    2.0868198872    8.3944797516
   4.5892300606   -0.4489099979    8.2183599472
   3.2307898998    1.9735900164    8.2586297989
   0.3510299921    0.4563699961    6.3562102318
  -1.0072000027    2.7686100006    6.3649501801
   3.4053900242    0.4450399876    6.2060198784
   1.7497899532    2.7508599758    6.2818598747
   0.6985300183    0.4676800072   13.2058601379
  -0.9398199916    2.9594399929   13.2208595276
   3.3543899059    0.3950900137   13.3100595474
   1.9837499857    2.8701200485   13.2381601334
   3.3951900005    3.6519300938   11.2298603058
  -0.8250799775    1.3793100119   11.1822595596
   0.7347199917    3.7056500912   11.1358604431
   2.0085499287    1.3217099905   11.0915603638
