Li6 Co12 O24 
1.0
5.6002449989318848e+00 0.0000000000000000e+00 0.0000000000000000e+00 
-2.7963807582855225e+00 4.8983316421508789e+00 0.0000000000000000e+00 
7.4616163969039917e-02 -2.6538112759590149e-01 1.3968379974365234e+01 
Li Co O 
6 12 24 
Cartesian
  -0.0517899990    0.3155199885    0.0701100007
   2.9147999287   -0.2545000017   13.9115495682
   4.3506798744    0.7922199965    4.6203899384
   2.8857300282    2.9097900391    4.5873899460
   2.7176699638    1.5807399750    9.3368902206
   0.9309899807    3.9630999565    9.3031396866
   0.2496899962    1.4606499672    2.3238999844
  -1.3508499861    3.9168601036    2.2984800339
   2.9447500706    1.5022699833    2.2138800621
   1.5045100451    3.9111700058    2.3633999825
   2.8232800961    4.6663799286    7.1594600677
   4.1281700134    2.2139000893    6.9571900368
  -0.0525600016    4.6243700981    6.9205999374
   1.4927999973    2.2379100323    6.8986701965
   1.4018599987    0.7336099744   11.6730499268
  -0.0024900001    3.2976300716   11.6999502182
   4.2283802032    0.8119699955   11.6236495972
   2.7717099190    3.2561500072   11.6929502487
  -2.6405799389    4.7453699112    3.3885700703
  -1.2313799858    2.3469500542    3.3003399372
   0.1989800036    4.8197398186    3.2955100536
   1.5970599651    2.3390800953    3.3773200512
   1.5631799698    0.5875700116    1.3197000027
   0.1049600020    3.1849799156    1.2891999483
   4.4301400185    0.6819700003    1.4058899879
   2.8375999928    3.1582798958    1.2957500219
   1.4298399687    0.6995900273    7.9484000206
  -0.0404199995    2.9905400276    7.8212800026
   4.1177802086    0.5738400221    8.0954599380
   2.7052099705    3.0268099308    7.9729900360
  -0.0599399991    1.3064600229    6.0580301285
  -1.4591100216    3.8338799477    5.8977098465
   2.9428899288    1.2939399481    5.8348298073
   1.4695500135    3.9277200699    6.0114798546
   0.0563500002    1.6521600485   12.7758502960
  -1.4036400318    4.1689500809   12.6861495972
   2.8138799667    1.5759700537   12.6538496017
   1.3560600281    4.1689300537   12.6421499252
   0.1103200018   -0.0244699996   10.6275501251
   4.0814700127    2.4977800846   10.6830501556
   2.8527500629    0.0510299988   10.5705499649
   1.4542200565    2.3661000729   10.6688499451
