Li6 Co12 O24 
1.0
5.5923976898193359e+00 0.0000000000000000e+00 0.0000000000000000e+00 
-2.8052539825439453e+00 4.8553385734558105e+00 0.0000000000000000e+00 
-2.5438867509365082e-02 2.1420262753963470e-01 1.2941339492797852e+01 
Li Co O 
6 12 24 
Cartesian
   2.8830399513    0.0232400000    0.0138200000
   4.0410399437    0.8657299876    4.2333297729
   2.8029499054    3.5488300323    4.3843097687
  -0.0661600009    1.8551000357    8.7549295425
  -1.4822299480    3.9529700279    8.6364097595
   1.4821200371    4.3006801605    8.7591800690
  -0.0375999995    1.6914800406    2.0732600689
  -1.4781899452    4.0908598900    1.8701800108
   2.7132899761    1.6628999710    2.0491499901
   1.3569999933    4.0849900246    2.1137299538
  -0.0365700014    0.1916300058    6.4232997894
   4.1440501213    2.5747599602    6.3726100922
   2.7755300999    0.2440399975    6.4895801544
   1.3665900230    2.6035299301    6.3916602135
   1.4919699430    0.8910400271   10.9756698608
   0.0550599992    3.3082499504   10.9166698456
   4.2124500275    0.8967400193   10.9547700882
   2.8573598862    3.2969799042   11.0511703491
   5.5404701233    0.1204999983    2.9754900932
   4.0744700432    2.5346200466    2.9558598995
   2.6344099045    0.0617900006    2.9613099098
   1.3495999575    2.4946000576    3.0640199184
   1.3449699879    0.9127500057    1.1183300018
  -0.0450799987    3.2829298973    1.1030299664
   4.1066298485    0.8376600146    1.1326299906
   2.6301300526    3.2903699875    1.0750399828
   1.2698099613    1.0381400585    7.4496598244
  -0.0494499989    3.4367399216    7.3584399223
   4.1564202309    1.0075700283    7.4445099831
   2.7096700668    3.4413900375    7.3306097984
  -0.0152000003    1.8308299780    5.4883699417
  -1.4282599688    4.2651100159    5.4894499779
   2.7166399956    1.7957700491    5.3769397736
   1.4005099535    4.3140702248    5.4014401436
   0.0612399988    1.7530399561   11.9210700989
  -1.2640000582    4.0738101006   11.9507703781
   2.8279900551    1.7189699411   11.9654703140
   1.3896700144    4.1033701897   11.9255695343
   2.9134600163    4.7580599785   10.0287704468
  -1.3272500038    2.4763300419   10.0266704559
   0.0780600011    4.8620400429    9.9265699387
   1.4953500032    2.4338500500    9.9412698746
