Li6 Co12 O24 
1.0
5.5927672386169434e+00 0.0000000000000000e+00 0.0000000000000000e+00 
-2.7712464332580566e+00 4.8848547935485840e+00 0.0000000000000000e+00 
-1.7589485645294189e+00 4.7237882018089294e-01 1.4405669212341309e+01 
Li Co O 
6 12 24 
Cartesian
   4.2327899933    0.1870200038    0.0049399999
   0.2395199984    0.9844899774    5.0510001183
  -1.0102299452    3.2837100029    4.8770799637
   2.2344899178    1.9477699995    9.6518201828
   0.6534000039    4.4057102203    9.3105802536
  -2.2939898968    4.3756299019    9.5002603531
   1.6101399660    1.7533600330    2.3841400146
   0.1665000021    4.2448201180    2.4801299572
   4.3826799393    1.6924400330    2.3713400364
  -2.5427401066    4.1829600334    2.4486100674
   2.0077400208    0.2654199898    7.2529897690
   0.6372500062    2.7446799278    7.2394900322
  -0.8264300227    0.3418099880    7.3327198029
  -2.1717100143    2.7747600079    7.1911101341
   3.6345601082    1.1987999678   11.9092102051
   2.2142601013    3.6609799862   12.0467100143
   0.7585099936    1.1620500088   11.9232101440
  -0.5860199928    3.6233201027   11.9087095261
  -1.2391500473    4.9853401184    3.4967501163
   0.0872099996    2.5606200695    3.4664099216
   4.4418802261    0.1638000011    3.4491701126
   3.0586600304    2.5010199547    3.4332499504
   3.0125799179    1.0144499540    1.4779800177
   1.5355900526    3.4360299110    1.4612200260
   0.1749099940    0.8547700047    1.4635900259
  -1.2110400200    3.3006598949    1.4354200363
   3.3102700710    1.0663199425    8.3083400726
   2.0106599331    3.5733599663    8.2569799423
   0.5962499976    1.1692500114    8.2638702393
  -0.7038400173    3.6277899742    8.1575403214
   1.9345500469    1.8371000290    6.3910198212
   0.6048099995    4.2512497902    6.4452700615
  -0.7122099996    1.9183499813    6.2842798233
  -2.0778999329    4.4052901268    6.2383298874
   2.2929100990    2.0269999504   12.9089097977
   0.8585100174    4.4974899292   12.8371095657
  -0.5946900249    1.8977500200   12.8378095627
  -1.8085600138    4.5911397934   12.9772100449
   2.2391500473    0.3702900112   10.8528099060
   0.9006999731    2.9378800392   11.0080099106
  -3.4273300171    5.1782999039   10.9142103195
  -2.0452399254    2.9432299137   10.8601102829
