Li6 Co12 O24 
1.0
5.5523824691772461e+00 0.0000000000000000e+00 0.0000000000000000e+00 
-2.7853462696075439e+00 4.8076243400573730e+00 0.0000000000000000e+00 
-2.4824990332126617e-01 6.7998774349689484e-02 1.2656232833862305e+01 
Li Co O 
6 12 24 
Cartesian
   2.6398000717    0.0396899991    0.0553000011
   2.6335101128    3.0780100822    4.1098499298
  -0.1784899980    1.4195300341    8.5721702576
  -1.5767699480    4.1937799454    8.3684997559
   2.6049699783    1.5747200251    8.4792995453
   1.2587000132    3.9944899082    8.4869804382
  -0.0343599990    1.6258100271    2.1244399548
  -1.3666700125    4.0538501740    2.0477199554
   2.8163800240    1.6022599936    2.0606698990
   1.4226700068    4.0615701675    2.0472400188
   2.6147599220    4.8162798882    6.1969099045
  -1.5495200157    2.5132400990    6.2161998749
  -0.2185100019    4.8395500183    6.1366200447
   1.2127399445    2.3831799030    6.1882600784
   1.0798100233    0.9019399881   10.7640495300
  -0.1997399926    3.2211298943   10.7515497208
   3.9468998909    0.8410000205   10.7390499115
   2.6365900040    3.2561500072   10.7038497925
  -2.8280899525    4.7983298302    3.0582098961
  -1.4708399773    2.4774200916    3.1258499622
   2.8482899666    0.0435599983    3.0208899975
   1.3846600056    2.4448900223    3.0549499989
   1.3988399506    0.8460400105    1.1677999496
  -0.0218000002    3.1683299541    1.1954200268
   4.2480998039    0.8441699743    1.0958600044
   2.7643001080    3.2359800339    1.0927900076
   1.1736999750    0.8559700251    7.1231999397
  -0.2478599995    3.2785398960    7.1934800148
   3.8535199165    0.9104099870    7.1660299301
   2.5192298889    3.2659399509    7.2643699646
  -0.1324400008    1.5567699671    5.1682801247
  -1.5831799507    3.9623100758    5.1482501030
   2.6598300934    1.6080800295    5.2106499672
   1.2519799471    4.0137500763    5.1841998100
  -0.1657900065    1.7328300476   11.6866502762
  -1.5493799448    4.0122299194   11.7065496445
   2.5899000168    1.6359599829   11.6600503922
   1.1022499800    4.0629901886   11.6319503784
  -2.9405999184    4.7994899750    9.7019500732
  -1.5719000101    2.4953799248    9.7203502655
   2.4856300354    0.0532100014    9.7363500595
   1.2286800146    2.4825699329    9.6650495529
