Li6 Co12 O24 
1.0
5.5761804580688477e+00 0.0000000000000000e+00 0.0000000000000000e+00 
-2.8404726982116699e+00 4.9514751434326172e+00 0.0000000000000000e+00 
-2.4712433815002441e+00 -9.3162423372268677e-01 1.4649276733398438e+01 
Li Co O 
6 12 24 
Cartesian
  -2.7503700256    2.9866199493   14.6409997940
   1.4269100428   -0.2031999975    5.0732002258
   3.2020399570    0.4266700149    9.8996496201
   1.6314500570    2.9519300461    9.8555498123
   0.1470099986    0.3489899933    9.8851995468
  -0.7295399904    2.8396100998    9.8132896423
  -0.2189600021    0.1101799980    2.5138800144
  -1.5743700266    2.6090400219    2.6057898998
   2.5653300285    0.2082999945    2.6248099804
   1.1838899851    2.6205799580    2.5871200562
   0.3280499876    3.7378199100    7.2991399765
   1.8343199492    1.1951899529    7.4280300140
  -2.3879699707    3.7405900955    7.4889001846
  -1.0003099442    1.3113900423    7.4064998627
  -1.0637300014   -0.4467700124   12.0125999451
  -2.4485199451    2.1153199673   12.0055999756
   1.7101099491   -0.3926599920   12.0822000504
   0.2618600130    2.0483899117   11.9832000732
   2.5629200935    3.5178101063    3.6122701168
   4.0567698479    1.0012400150    3.5051600933
  -0.1089899987    3.5088698864    3.5165998936
   1.1489499807    0.9439899921    3.5113298893
  -1.7171399593    4.2534098625    1.5922199488
  -0.2423900068    1.7501200438    1.5721900463
   1.2283200026    4.2483401299    1.5583100319
   2.5043199062    1.8246400356    1.5927000046
  -0.9759899974   -0.4345799983    8.5075397491
  -2.4140501022    2.1323499680    8.4874401093
   1.7832299471   -0.3610399961    8.4737100601
   0.4410899878    2.2095301151    8.3457403183
   3.1301701069    0.3969799876    6.3026099205
   1.8330700397    2.9433801174    6.4631800652
   0.4912100136    0.4409199953    6.4906301498
  -1.0769699812    3.0303800106    6.3807997704
  -2.4328498840    0.4937300086   12.8931999207
  -3.8792700768    2.9137299061   12.9091997147
   0.1752000004    0.5146800280   12.9497003555
  -1.1676199436    2.9129900932   12.8732995987
   0.3659799993    3.7308099270   10.9074001312
   1.6901899576    1.3048199415   10.9853000641
  -2.5578498840    3.6798799038   10.9790000916
  -1.1183500290    1.2954599857   10.7336997986
