Li6 Co12 O24 
1.0
5.3752489089965820e+00 0.0000000000000000e+00 0.0000000000000000e+00 
-2.6979315280914307e+00 4.6724882125854492e+00 0.0000000000000000e+00 
4.7145541757345200e-02 4.4671177864074707e-02 1.3101624488830566e+01 
Li Co O 
6 12 24 
Cartesian
   2.7519700527    0.0555999987    0.0031500000
   3.8664200306    0.6378899813    4.4972600937
   2.7214798927    3.0254900455    4.5400800705
  -0.1593700051    1.8145799637    8.6976995468
  -1.4604599476    3.8986001015    8.6508903503
   1.4669699669    3.9225099087    8.7806501389
   0.0541500002    1.5017100573    2.1555199623
  -1.2589499950    3.8793900013    2.2176799774
   2.7734398842    1.5073499680    2.1364700794
   1.4650000334    3.8468499184    2.1137199402
   2.7085599899    4.6448698044    6.5511698723
   4.0108199120    2.2509601116    6.5715599060
   0.0175899994    4.6402101517    6.5602698326
   1.3260099888    2.3086099625    6.6145300865
   1.2914799452    0.9717599750   10.9477500916
   0.0680299997    3.2431399822   10.9508495331
   3.9948699474    0.9396100044   10.9447498322
   2.6707899570    3.3089799881   10.8856496811
  -2.5841701031    4.6536698341    3.2092399597
  -1.2516700029    2.2847599983    3.1643500328
   0.0883700028    4.6314601898    3.1584498882
   1.4288699627    2.2936799526    3.0972099304
   1.4721200466    0.6692900062    1.1808199883
   0.0719600022    3.0798199177    1.1956000328
   4.1007499695    0.6958299875    1.1166000366
   2.8461799622    3.0628099442    1.1950099468
   1.3275699615    0.6744800210    7.5781102180
  -0.0225799996    3.0873699188    7.5716400146
   3.9894399643    0.7951899767    7.6199097633
   2.6948599815    3.1415700912    7.6090598106
  -0.1229699999    1.4906899929    5.5173997879
  -1.3906600475    3.8421399593    5.6049900055
   2.6366500854    1.5460200310    5.5036802292
   1.3101600409    3.7684800625    5.5412697792
   0.0192900002    1.7206100225   11.9185495377
  -1.4164899588    4.0927100182   11.8992500305
   2.6131598949    1.5961600542   12.0168504715
   1.3223999739    4.0512299538   11.9035501480
  -0.0307800006    0.1726800054    9.9343500137
   3.9705901146    2.4584100246    9.9734497070
   2.6768200397    0.1123400033    9.9075498581
   1.2997000217    2.4612200260    9.9302501678
