Li6 Co12 O24 
1.0
5.7005791664123535e+00 0.0000000000000000e+00 0.0000000000000000e+00 
-2.8260173797607422e+00 4.9734878540039062e+00 0.0000000000000000e+00 
3.0086341500282288e-01 -1.0357438772916794e-01 1.3789916992187500e+01 
Li Co O 
6 12 24 
Cartesian
   2.7569999695    0.2600399852    0.1241400018
   3.0649199486    3.1647999287    4.6796898842
  -0.0295599997    1.8386600018    9.0321903229
  -1.1821299791    3.9616498947    8.9987401962
   2.7195200920    1.5141999722    8.7700595856
   1.7191100121    3.8588199615    9.2149200439
  -0.0309400000    1.7054699659    2.3076400757
  -1.3752299547    4.1670899391    2.3829998970
   2.8142499924    1.6477600336    2.3393199444
   1.4867600203    4.1986398697    2.3934299946
   3.0408899784    4.7679700851    6.9477801323
  -1.2023400068    2.3345699310    6.8968601227
   0.2111400068    4.9180297852    6.8084502220
   1.6549600363    2.3701701164    6.8247900009
   1.7083599567    0.7764599919   11.3968296051
   0.2568500042    3.2025198936   11.4162302017
   4.5481300354    0.7532399893   11.5442304611
   3.1692500114    3.2668199539   11.5065298080
  -2.7434000969    4.9289598465    3.1593799591
   4.2841501236    2.5627501011    3.2710399628
   2.8986198902    0.0592899993    3.2938399315
   1.3617700338    2.5806000233    3.2777199745
   1.4241499901    0.9330000281    1.3231699467
   0.1393399984    3.4008800983    1.5085200071
   4.2529301643    0.7436900139    1.3259099722
   3.0375900269    3.4469499588    1.3628900051
   1.4518599510    0.7611500025    7.9760198593
   0.1448200047    3.3930299282    7.9111800194
   4.3573398590    0.6621599793    7.9439702034
   3.0993299484    3.1679999828    8.0449600220
   0.1893599927    1.5724099874    5.9528598785
  -1.2323299646    3.9759700298    5.8750300407
   3.1105899811    1.5337500572    5.8846998215
   1.6374499798    4.0565900803    5.8857097626
   0.2973299921    1.5239599943   12.3783302307
  -1.0823800564    4.1128001213   12.4522304535
   3.0442800522    1.6156599522   12.4178304672
   1.7986400127    4.2117500305   12.5118303299
   0.2567299902   -0.0571199991   10.4837303162
   4.4584598541    2.3534100056   10.4108295441
   3.1333899498   -0.0389200002   10.5724296570
   1.7374700308    2.4505701065   10.4658298492
