Li6 Co12 O24 
1.0
5.5627765655517578e+00 0.0000000000000000e+00 0.0000000000000000e+00 
-2.7479498386383057e+00 4.8229179382324219e+00 0.0000000000000000e+00 
-1.1602476835250854e+00 -5.0942167639732361e-02 1.4870559692382812e+01 
Li Co O 
6 12 24 
Cartesian
   2.3323500156    0.5737599730    0.0163100008
   2.0841898918    3.1840500832    5.0714998245
  -0.4315600097    1.5263299942    9.7123899460
  -2.0969099998    4.0669798851   10.0647802353
   2.1737999916    1.5526299477   10.1370897293
   0.8671000004    3.9363400936    9.8211603165
  -0.5296800137    1.5966700315    2.2985498905
  -1.9337500334    3.9763998985    2.2431399822
   2.2523999214    1.5949499607    2.4576199055
   0.9017999768    3.9805800915    2.2673699856
   2.1707699299    4.7244400978    7.6013798714
   3.5929598808    2.3364999294    7.6677098274
  -0.5447599888    4.6892099380    7.6502299309
   0.8265799880    2.3126099110    7.7262802124
   0.7121199965    0.9015499949   12.3079395294
  -0.5611500144    3.2765600681   12.2755403519
   3.5453898907    0.8784700036   12.2975397110
   2.2093501091    3.2551100254   12.3570404053
   2.3125898838    4.7398500443    3.4485499859
   3.6386599541    2.4984500408    3.3105199337
   2.3662400246    0.0485399999    3.2598600388
   0.8478400111    2.4799699783    3.3570799828
   0.9884200096    0.7350800037    1.3915599585
  -0.5748100281    3.1116399765    1.2784800529
   3.6705799103    0.7515000105    1.4539099932
   2.3318600655    3.0796198845    1.3434900045
   0.8550300002    0.6441699862    8.7753400803
  -0.6933100224    3.0901999474    8.7825899124
   3.5702099800    0.7368199825    8.7122602463
   2.2371699810    3.0831799507    8.6984395981
  -0.6125400066    1.4559299946    6.7169499397
  -1.9057400227    3.8777499199    6.7419900894
   2.3315100670    1.4698699713    6.7683300972
   0.8130499721    3.8755300045    6.6200399399
  -0.5176500082    1.7160099745   13.3440399170
  -1.9524500370    4.0218300819   13.2092399597
   2.0709800720    1.5982600451   13.2295398712
   0.8152999878    4.1497101784   13.2577400208
  -0.5662099719    0.0488899983   11.3355398178
  -1.8466399908    2.5183000565   11.2050399780
   2.1502399445    0.0337500013   11.3091402054
   0.7710300088    2.4169700146   11.2007398605
