Li6 Co12 O24 
1.0
5.6214599609375000e+00 0.0000000000000000e+00 0.0000000000000000e+00 
-2.8058307170867920e+00 4.8462915420532227e+00 0.0000000000000000e+00 
6.6848284006118774e-01 9.6829518675804138e-02 1.4142290115356445e+01 
Li Co O 
6 12 24 
Cartesian
   6.1984801292    0.2356200069   14.1165504456
   2.9804699421    0.0059799999    0.0180200003
   4.3865499496    0.5989699960    4.8200597763
   3.0454199314    2.9301700592    4.5552701950
   0.5877400041    1.7179000378    9.4214401245
  -1.1996699572    3.9505300522    9.2624597549
   0.0566200018    1.7683900595    2.5118799210
  -1.3704500198    4.1904997826    2.4821898937
   2.8009600639    1.7567499876    2.4112401009
   1.5293200016    4.2191100121    2.4801099300
   2.9187500477    4.6856899261    7.0603098869
   4.3394799232    2.3144900799    7.1092100143
   0.0971999988    4.7547101974    6.9574699402
   1.5083999634    2.3355600834    7.0264801979
   2.2931001186    1.0146700144   11.6878499985
   0.8618699908    3.3564400673   11.6826496124
   5.0638699532    0.8964200020   11.7314500809
   3.6603300571    3.3500800133   11.7961502075
   5.6656098366    0.1429499984    3.4826099873
   4.3167400360    2.5039598942    3.4465899467
   2.7798800468    0.2372699976    3.4766800404
   1.4908200502    2.5191800594    3.4496200085
   1.3061800003    0.9398000240    1.3914899826
   0.0877100006    3.4312000275    1.5028799772
   4.2107701302    0.9685900211    1.4682300091
   2.8946800232    3.3702800274    1.4737199545
   1.5517599583    0.7318999767    8.1055803299
   0.1175400019    3.0549600124    8.0922002792
   4.4559998512    0.7421799898    7.9786100388
   2.8962199688    3.1225900650    7.9849500656
   0.0562900007    1.4632999897    6.0902500153
  -1.3623800278    3.7612800598    5.9963002205
   2.8919100761    1.5264300108    6.0023398399
   1.5695799589    3.9153399467    5.9581298828
   0.9177700281    1.7969900370   12.7585496902
  -0.6156899929    4.1606397629   12.6827497482
   3.6547899246    1.6966400146   12.7851495743
   2.3164000511    4.1609201431   12.7035503387
   0.8683300018    0.1669500023   10.7459497452
  -0.5194200277    2.4955101013   10.7334499359
   3.5715999603    0.0758500025   10.6212501526
   2.3271200657    2.5379400253   10.6765499115
