Li6 Co12 O24 
1.0
5.5008277893066406e+00 0.0000000000000000e+00 0.0000000000000000e+00 
-2.7463386058807373e+00 4.8035507202148438e+00 0.0000000000000000e+00 
-5.9069260954856873e-02 2.2433204948902130e-01 1.3098829269409180e+01 
Li Co O 
6 12 24 
Cartesian
   2.6719400883    0.0104999999    0.0330399983
   4.0950598717    1.0148400068    4.4764399529
   2.5433399677    3.2960801125    4.2319297791
  -0.2102700025    1.8499799967    8.8799104691
  -1.3423199654    4.1885499954    8.8678598404
   1.4184900522    4.0957298279    8.8920202255
   0.0304799993    1.5704300404    2.0472400188
  -1.3202300072    3.9121799469    2.0049901009
   2.7823801041    1.5751999617    2.0314199924
   1.3883299828    3.9410600662    2.0310900211
   2.7317500114    4.8939299583    6.5093598366
   4.0853600502    2.5221400261    6.5324797630
   2.6224100590    0.1342200041    6.4413700104
   1.3631600142    2.5116300583    6.4329299927
   1.3593699932    1.1007699966   11.1092500687
  -0.0418700017    3.4647800922   11.1124496460
   4.1257901192    1.1056599617   11.1489496231
   2.6669600010    3.4851000309   11.1517496109
   2.6617701054    4.7601499557    3.0041100979
  -1.3028700352    2.4593100548    3.0048499107
  -0.0906300023    4.7174000740    2.9590098858
   1.4577599764    2.2335300446    2.9440000057
   1.3467899561    0.8807500005    1.0305399895
  -0.0177999996    3.2206699848    1.0250300169
   4.1267700195    0.7412899733    1.0520000458
   2.7281100750    3.1736099720    1.2379499674
   1.2656600475    0.9975299835    7.5394401550
  -0.0886399969    3.2732601166    7.5403299332
   4.0821599960    0.8440399766    7.5470700264
   2.8135299683    3.3312699795    7.5873699188
  -0.1119600013    1.6787899733    5.5613098145
  -1.5051599741    4.0755100250    5.4125699997
   2.7143199444    1.7891399860    5.4965701103
   1.3962199688    4.1471600533    5.5276298523
  -0.0635399967    1.9257199764   12.1128501892
  -1.3406100273    4.2149600983   12.1750497818
   2.6407999992    1.8221399784   12.0559501648
   1.2218199968    4.1674599648   12.1705503464
  -0.0014900001    0.2014600039   10.1883497238
  -1.4746799469    2.7060999870   10.1993503571
   2.7494299412    0.1823900044   10.1453504562
   1.2742600441    2.5305399895    9.9942502975
