Li6 Co12 O24 
1.0
5.6496729850769043e+00 0.0000000000000000e+00 0.0000000000000000e+00 
-2.7918636798858643e+00 4.9685463905334473e+00 0.0000000000000000e+00 
-7.8758412599563599e-01 6.9172376394271851e-01 1.4772864341735840e+01 
Li Co O 
6 12 24 
Cartesian
  -0.6522799730    5.5155501366   14.6531400681
   2.8131299019    3.5010099411    4.9932799339
  -0.4489499927    2.2597799301    9.6957302094
  -1.8840800524    4.4760198593    9.7133903503
   2.1957600117    2.1356101036    9.8450899124
   0.9068199992    4.7146601677    9.8793497086
  -0.0183700006    2.1442599297    2.6766500473
  -1.4832500219    4.5465798378    2.5583600998
   2.7845900059    1.9319200516    2.4335598946
   1.3298200369    4.4400000572    2.4446599483
   5.1600298882    0.4050900042    7.4704799652
  -1.7993199825    2.9710700512    7.4745798111
   2.3614099026    0.5080699921    7.4592800140
   0.9854599833    2.9144899845    7.5384497643
   0.7869200110    1.0838400126   12.1187400818
  -0.6248199940    3.6249101162   12.2008399963
   3.6238598824    1.0154299736   12.0647401810
   2.2237999439    3.4911100864   12.3332395554
  -0.0922899991    0.3208299875    3.4949600697
  -1.4029099941    2.9227299690    3.5232899189
   2.8188199997    0.3687500060    3.5967099667
   1.4057300091    2.8540201187    3.5583899021
   1.3718600273    1.0390000343    1.4685300589
  -0.1285399944    3.7200500965    1.4982600212
   3.9324500561    1.0280200243    1.4964699745
   2.8139500618    3.7173399925    1.5915399790
   0.8595600128    1.1772500277    8.4315500259
  -0.3807699978    3.9085199833    8.4153604507
   3.7050199509    1.2667900324    8.5831403732
   2.3499200344    3.6682999134    8.6604995728
  -0.4259400070    2.0761599541    6.6179499626
  -1.8277399540    4.6439499855    6.4829502106
   2.2290799618    2.1573998928    6.4789199829
   1.0495599508    4.5541701317    6.4066400528
  -0.6679499745    1.9313600063   13.0912399292
  -2.0045599937    4.4366798401   13.1339397430
   2.2750499249    1.7743200064   12.9740400314
   0.6923300028    4.4577398300   13.1580400467
   2.1312499046    5.1212000847   11.1739397049
   3.4572799206    2.7694499493   11.1539402008
  -0.6831899881    5.1550698280   11.0986404419
   0.6996499896    2.8191900253   11.2110395432
