Li6 Co12 O24 
1.0
5.7181849479675293e+00 0.0000000000000000e+00 0.0000000000000000e+00 
-2.8821685314178467e+00 4.9590258598327637e+00 0.0000000000000000e+00 
-4.4408169388771057e-01 -8.6284917593002319e-01 1.5476953506469727e+01 
Li Co O 
6 12 24 
Cartesian
   0.6725500226    3.8921298981    0.1827300042
   2.9765300751    2.7863700390    5.4032201767
  -0.0884800032    1.0375299454   10.2690896988
  -1.6137499809    3.7011098862   10.2857799530
   3.0541400909    0.9826700091   10.2053499222
   1.4079500437    3.3799800873   10.2796297073
  -0.5912899971    1.6227200031    2.6981000900
  -2.0969099998    4.0930099487    2.5618801117
   2.3067300320    1.5525599718    2.5473198891
   0.8721899986    4.0903701782    2.6832098961
  -2.7973198891    4.4843702316    7.9171400070
  -1.4758399725    1.9494700432    7.9990601540
   2.8803400993   -0.4264799953    7.8262400627
   1.3757599592    2.1546599865    8.0008602142
   1.2386200428    0.0075500002   12.7214603424
  -0.1950999945    2.5970799923   12.6264600754
   4.1965699196    0.0981199965   12.6562595367
   2.7189600468    2.4310100079   12.6912603378
   5.2071099281   -0.0688799992    3.6716799736
   3.6085801125    2.3970799446    3.6283800602
   2.2445499897   -0.0801799968    3.5279901028
   0.8562600017    2.5006499290    3.7731399536
   0.7292699814    0.8162699938    1.7238600254
  -0.5045199990    3.2943899632    1.7296700478
   3.6907401085    0.7553099990    1.6675100327
   2.3206300735    3.2093300819    1.6855499744
   1.4676599503    0.3470200002    8.9477100372
  -0.0578400008    3.0078001022    8.8627901077
   4.4185400009    0.2873800099    8.9858903885
   2.9253799915    2.9203898907    8.9698400497
  -0.1369899958    1.2517900467    7.0202798843
  -1.5174800158    3.6472899914    6.8277301788
   2.8925399780    1.3335499763    6.9615502357
   1.4920899868    3.7063899040    6.8519902229
  -0.1502099931    0.8949599862   13.5842599869
  -1.5719799995    3.3617000580   13.5572595596
   2.6418900490    0.8050900102   13.5868597031
   1.2813999653    3.2627000809   13.6397600174
  -2.9245300293    4.2768898010   11.5095596313
  -1.5772999525    1.6050399542   11.6294603348
  -0.1691399962    4.2470102310   11.6976604462
   1.3726400137    1.8916599751   11.4911603928
