Li6 Co12 O24 
1.0
5.6277313232421875e+00 0.0000000000000000e+00 0.0000000000000000e+00 
-2.7377276420593262e+00 4.7747049331665039e+00 0.0000000000000000e+00 
-4.9381229281425476e-01 -2.8720301389694214e-01 1.4617368698120117e+01 
Li Co O 
6 12 24 
Cartesian
  -2.5907099247    4.7526597977    0.0904600024
  -0.0685599968    4.7537097931    0.0655300021
   3.9223299026    0.2933999896    4.8766498566
   2.7313499451    3.2555499077    4.9032897949
  -0.4095799923    1.4525400400   10.0340595245
  -1.8825299740    3.8596599102    9.7456102371
  -0.0940200016    1.4947400093    2.1881000996
  -1.4262499809    3.9206199646    2.5008699894
   2.8430099487    1.5302300453    2.2330000401
   1.3634999990    3.7921299934    2.4403400421
   2.6268699169    4.5929098129    7.3612899780
   3.9576499462    2.0974500179    7.4343500137
  -0.1590099931    4.4702701569    7.3633298874
   1.2264699936    2.1405599117    7.4653701782
   1.0075800419    0.8194500208   12.1948604584
  -0.2664499879    3.2081100941   12.1720600128
   3.7304499149    0.7067599893   12.0301599503
   2.5155498981    3.0466799736   12.2110595703
   5.4669198990   -0.0595000014    3.3786900043
  -1.4444999695    2.2574501038    3.3948199749
   2.7231299877   -0.0265299994    3.3395800591
   1.4394600391    2.1640899181    3.3161900043
   1.4096399546    0.5745199919    1.2470500469
   0.0328699984    3.0651800632    1.4249999523
   4.1986498833    0.6464499831    1.1979600191
   2.7619199753    3.1338601112    1.4855799675
   1.0872100592    0.5371699929    8.2911996841
  -0.3864800036    2.8207600117    8.4730396271
   3.9074399471    0.5086699724    8.4140796661
   2.4246799946    2.9081499577    8.5051498413
  -0.2345999926    1.4217100143    6.3364300728
  -1.6755399704    3.7193200588    6.3774600029
   2.5600099564    1.3101899624    6.4595098495
   1.2097400427    3.7905600071    6.4199900627
  -0.4615100026    1.3786400557   13.1660604477
  -1.6483000517    3.7222299576   13.2973604202
   2.5390601158    1.4206399918   13.1478595734
   1.1827600002    3.8964500427   13.2029600143
  -0.2992500067   -0.0369900018   11.1259603500
  -1.6928499937    2.4201400280   11.2810602188
   2.3900198936   -0.0050499998   11.0605602264
   1.1901400089    2.5143699646   11.2279596329
