Li6 Co12 O24 
1.0
5.5362010002136230e+00 0.0000000000000000e+00 0.0000000000000000e+00 
-2.8787958621978760e+00 4.8271188735961914e+00 0.0000000000000000e+00 
5.9202748537063599e-01 2.8524652123451233e-01 1.4856312751770020e+01 
Li Co O 
6 12 24 
Cartesian
   0.1367799938    0.1297699958    0.1763200015
   3.8850400448    0.6248099804   14.6774196625
   4.0708498955    1.1352100372    5.0322699547
   2.6767199039    3.2805399895    4.8460397720
   2.2625799179    1.5813000202   10.0487403870
   2.1106300354    4.4393801689    9.9383296967
   0.1146100014    1.5166699886    2.3248500824
  -1.1213400364    4.0660300255    2.4581999779
   2.9280600548    1.6393799782    2.4965100288
   1.6005300283    3.9089999199    2.3991799355
   2.7610700130    4.8159499168    7.4123201370
   4.1109299660    2.4875700474    7.5750799179
  -0.0732899979    4.7819099426    7.3735098839
   1.3055399656    2.3178501129    7.4421501160
   2.0949499607    1.1535199881   12.5195198059
   0.5943300128    3.6668701172   12.3165197372
   4.7262601852    1.3466600180   12.3365201950
   3.2712399960    3.6923699379   12.5447196960
  -2.6225800514    4.7178001404    3.4725499153
  -1.1855700016    2.5218899250    3.5012099743
   0.2435699999    4.7965998650    3.3759999275
   1.4166100025    2.3341701031    3.4309000969
   1.5257200003    0.7273300290    1.3620699644
   0.1917999983    3.2275500298    1.4523799419
   4.3900399208    0.8204699755    1.3735200167
   2.8977398872    3.2649500370    1.3511999846
   1.4119100571    0.7658500075    8.4690198898
  -0.1072200015    3.2553300858    8.4439897537
   4.0791602135    0.6970000267    8.3871297836
   2.6705999374    3.3012900352    8.5193796158
  -0.2317499965    1.5788199902    6.5092501640
  -1.3832800388    4.0267601013    6.3412799835
   2.7805800438    1.5993700027    6.3823099136
   1.4379400015    3.8994801044    6.3947501183
   0.5538200140    2.0178000927   13.4367198944
  -0.8487399817    4.3519501686   13.4976196289
   3.4280900955    2.1182401180   13.5038204193
   1.8143099546    4.5135397911   13.3946199417
   0.6115900278    0.5559200048   11.5121202469
  -0.9062700272    3.0852699280   11.4707202911
   3.4652299881    0.6131899953   11.3571195602
   2.1547698975    2.9211599827   11.3361196518
