Li6 Co12 O24 
1.0
5.6437072753906250e+00 0.0000000000000000e+00 0.0000000000000000e+00 
-2.8611750602722168e+00 5.0030345916748047e+00 0.0000000000000000e+00 
-7.3269613087177277e-02 3.0994695425033569e-01 1.4842931747436523e+01 
Li Co O 
6 12 24 
Cartesian
   0.0875900015    5.0658698082   14.3757095337
   2.9916000366    3.4161100388    5.2307100296
   0.0527799986    1.6062599421    9.8577299118
  -1.2914500237    4.2686100006    9.9763603210
   2.6552400589    1.4250899553    9.9214601517
   1.4969799519    4.2079501152    9.7121896744
  -0.0372200012    1.9761600494    2.6489799023
  -1.4447100163    4.3322100639    2.5223500729
   2.7076098919    1.9615499973    2.5143001080
   1.2640800476    4.3523597717    2.8108100891
   0.0049000001    0.2338500023    7.4051399231
  -1.4399600029    2.6524701118    7.4663000107
   2.7309699059    0.2569000125    7.3745398521
   1.3265199661    2.7334599495    7.4521398544
   1.3624700308    0.9149100184   12.2532100677
  -0.1199800000    3.4974899292   12.1945104599
   4.2208600044    0.8086699843   12.1334104538
   2.7236199379    3.2636699677   12.2904100418
   0.0695300028    0.2404299974    3.7220499516
   4.1002202034    2.6752300262    3.5340299606
   2.8170399666    0.3502199948    3.5708000660
   1.2569299936    2.7330799103    3.6385400295
   1.3372900486    1.1150200367    1.6409499645
  -0.0110999998    3.5656299591    1.7477400303
   4.2349700928    1.0663900375    1.8259600401
   2.7421898842    3.5913300514    1.7222599983
   1.4040600061    1.0476000309    8.3895101547
  -0.0399099998    3.5718600750    8.3519697189
   4.1989398003    1.1549999714    8.4327201843
   2.8041501045    3.4949700832    8.4621896744
  -0.1164499968    1.9665700197    6.3792901039
  -1.4953199625    4.4755501747    6.3957099915
   2.7349998951    1.8538700342    6.3772602081
   1.4111399651    4.3669199944    6.6474399567
   0.0815400034    1.7412199974   13.1309099197
  -1.5175800323    4.2950000763   13.1759099960
   2.7466700077    1.6678099632   13.2055101395
   1.2906500101    4.1154599190   13.1830101013
   2.8918600082    4.9037299156   11.0626096725
   4.1185002327    2.6073300838   11.2254104614
  -0.0704400018    5.0914301872   11.0667104721
   1.2222599983    2.5162999630   11.1579103470
